    1C
    1UUSER                                                              
    1UDATE              30.april.2020                                   
    1UTIME              00:10:58                                        
    1UHOST                                                              
    1UPGM               CalculiX                                        
    1UVERSION           Version 2.16                             
    1UCOMPILETIME       Mo 25. Nov 18:56:47 CET 2019                    
    1UDIR                                                               
    1UDBN                                                               
    1UMAT    1ALUMINIO                                                  
    2C                           201                                     1
 -1         1 0.00000E+00 0.00000E+00 0.00000E+00
 -1         2 1.00000E-03 0.00000E+00 0.00000E+00
 -1         3 2.00000E-03 0.00000E+00 0.00000E+00
 -1         4 3.00000E-03 0.00000E+00 0.00000E+00
 -1         5 4.00000E-03 0.00000E+00 0.00000E+00
 -1         6 5.00000E-03 0.00000E+00 0.00000E+00
 -1         7 6.00000E-03 0.00000E+00 0.00000E+00
 -1         8 7.00000E-03 0.00000E+00 0.00000E+00
 -1         9 8.00000E-03 0.00000E+00 0.00000E+00
 -1        10 9.00000E-03 0.00000E+00 0.00000E+00
 -1        11 1.00000E-02 0.00000E+00 0.00000E+00
 -1        12 1.10000E-02 0.00000E+00 0.00000E+00
 -1        13 1.20000E-02 0.00000E+00 0.00000E+00
 -1        14 1.30000E-02 0.00000E+00 0.00000E+00
 -1        15 1.40000E-02 0.00000E+00 0.00000E+00
 -1        16 1.50000E-02 0.00000E+00 0.00000E+00
 -1        17 1.60000E-02 0.00000E+00 0.00000E+00
 -1        18 1.70000E-02 0.00000E+00 0.00000E+00
 -1        19 1.80000E-02 0.00000E+00 0.00000E+00
 -1        20 1.90000E-02 0.00000E+00 0.00000E+00
 -1        21 2.00000E-02 0.00000E+00 0.00000E+00
 -1        22 2.10000E-02 0.00000E+00 0.00000E+00
 -1        23 2.20000E-02 0.00000E+00 0.00000E+00
 -1        24 2.30000E-02 0.00000E+00 0.00000E+00
 -1        25 2.40000E-02 0.00000E+00 0.00000E+00
 -1        26 2.50000E-02 0.00000E+00 0.00000E+00
 -1        27 2.60000E-02 0.00000E+00 0.00000E+00
 -1        28 2.70000E-02 0.00000E+00 0.00000E+00
 -1        29 2.80000E-02 0.00000E+00 0.00000E+00
 -1        30 2.90000E-02 0.00000E+00 0.00000E+00
 -1        31 3.00000E-02 0.00000E+00 0.00000E+00
 -1        32 3.10000E-02 0.00000E+00 0.00000E+00
 -1        33 3.20000E-02 0.00000E+00 0.00000E+00
 -1        34 3.30000E-02 0.00000E+00 0.00000E+00
 -1        35 3.40000E-02 0.00000E+00 0.00000E+00
 -1        36 3.50000E-02 0.00000E+00 0.00000E+00
 -1        37 3.60000E-02 0.00000E+00 0.00000E+00
 -1        38 3.70000E-02 0.00000E+00 0.00000E+00
 -1        39 3.80000E-02 0.00000E+00 0.00000E+00
 -1        40 3.90000E-02 0.00000E+00 0.00000E+00
 -1        41 4.00000E-02 0.00000E+00 0.00000E+00
 -1        42 4.10000E-02 0.00000E+00 0.00000E+00
 -1        43 4.20000E-02 0.00000E+00 0.00000E+00
 -1        44 4.30000E-02 0.00000E+00 0.00000E+00
 -1        45 4.40000E-02 0.00000E+00 0.00000E+00
 -1        46 4.50000E-02 0.00000E+00 0.00000E+00
 -1        47 4.60000E-02 0.00000E+00 0.00000E+00
 -1        48 4.70000E-02 0.00000E+00 0.00000E+00
 -1        49 4.80000E-02 0.00000E+00 0.00000E+00
 -1        50 4.90000E-02 0.00000E+00 0.00000E+00
 -1        51 5.00000E-02 0.00000E+00 0.00000E+00
 -1        52 5.10000E-02 0.00000E+00 0.00000E+00
 -1        53 5.20000E-02 0.00000E+00 0.00000E+00
 -1        54 5.30000E-02 0.00000E+00 0.00000E+00
 -1        55 5.40000E-02 0.00000E+00 0.00000E+00
 -1        56 5.50000E-02 0.00000E+00 0.00000E+00
 -1        57 5.60000E-02 0.00000E+00 0.00000E+00
 -1        58 5.70000E-02 0.00000E+00 0.00000E+00
 -1        59 5.80000E-02 0.00000E+00 0.00000E+00
 -1        60 5.90000E-02 0.00000E+00 0.00000E+00
 -1        61 6.00000E-02 0.00000E+00 0.00000E+00
 -1        62 6.10000E-02 0.00000E+00 0.00000E+00
 -1        63 6.20000E-02 0.00000E+00 0.00000E+00
 -1        64 6.30000E-02 0.00000E+00 0.00000E+00
 -1        65 6.40000E-02 0.00000E+00 0.00000E+00
 -1        66 6.50000E-02 0.00000E+00 0.00000E+00
 -1        67 6.60000E-02 0.00000E+00 0.00000E+00
 -1        68 6.70000E-02 0.00000E+00 0.00000E+00
 -1        69 6.80000E-02 0.00000E+00 0.00000E+00
 -1        70 6.90000E-02 0.00000E+00 0.00000E+00
 -1        71 7.00000E-02 0.00000E+00 0.00000E+00
 -1        72 7.10000E-02 0.00000E+00 0.00000E+00
 -1        73 7.20000E-02 0.00000E+00 0.00000E+00
 -1        74 7.30000E-02 0.00000E+00 0.00000E+00
 -1        75 7.40000E-02 0.00000E+00 0.00000E+00
 -1        76 7.50000E-02 0.00000E+00 0.00000E+00
 -1        77 7.60000E-02 0.00000E+00 0.00000E+00
 -1        78 7.70000E-02 0.00000E+00 0.00000E+00
 -1        79 7.80000E-02 0.00000E+00 0.00000E+00
 -1        80 7.90000E-02 0.00000E+00 0.00000E+00
 -1        81 8.00000E-02 0.00000E+00 0.00000E+00
 -1        82 8.10000E-02 0.00000E+00 0.00000E+00
 -1        83 8.20000E-02 0.00000E+00 0.00000E+00
 -1        84 8.30000E-02 0.00000E+00 0.00000E+00
 -1        85 8.40000E-02 0.00000E+00 0.00000E+00
 -1        86 8.50000E-02 0.00000E+00 0.00000E+00
 -1        87 8.60000E-02 0.00000E+00 0.00000E+00
 -1        88 8.70000E-02 0.00000E+00 0.00000E+00
 -1        89 8.80000E-02 0.00000E+00 0.00000E+00
 -1        90 8.90000E-02 0.00000E+00 0.00000E+00
 -1        91 9.00000E-02 0.00000E+00 0.00000E+00
 -1        92 9.10000E-02 0.00000E+00 0.00000E+00
 -1        93 9.20000E-02 0.00000E+00 0.00000E+00
 -1        94 9.30000E-02 0.00000E+00 0.00000E+00
 -1        95 9.40000E-02 0.00000E+00 0.00000E+00
 -1        96 9.50000E-02 0.00000E+00 0.00000E+00
 -1        97 9.60000E-02 0.00000E+00 0.00000E+00
 -1        98 9.70000E-02 0.00000E+00 0.00000E+00
 -1        99 9.80000E-02 0.00000E+00 0.00000E+00
 -1       100 9.90000E-02 0.00000E+00 0.00000E+00
 -1       101 1.00000E-01 0.00000E+00 0.00000E+00
 -1       102 1.01000E-01 0.00000E+00 0.00000E+00
 -1       103 1.02000E-01 0.00000E+00 0.00000E+00
 -1       104 1.03000E-01 0.00000E+00 0.00000E+00
 -1       105 1.04000E-01 0.00000E+00 0.00000E+00
 -1       106 1.05000E-01 0.00000E+00 0.00000E+00
 -1       107 1.06000E-01 0.00000E+00 0.00000E+00
 -1       108 1.07000E-01 0.00000E+00 0.00000E+00
 -1       109 1.08000E-01 0.00000E+00 0.00000E+00
 -1       110 1.09000E-01 0.00000E+00 0.00000E+00
 -1       111 1.10000E-01 0.00000E+00 0.00000E+00
 -1       112 1.11000E-01 0.00000E+00 0.00000E+00
 -1       113 1.12000E-01 0.00000E+00 0.00000E+00
 -1       114 1.13000E-01 0.00000E+00 0.00000E+00
 -1       115 1.14000E-01 0.00000E+00 0.00000E+00
 -1       116 1.15000E-01 0.00000E+00 0.00000E+00
 -1       117 1.16000E-01 0.00000E+00 0.00000E+00
 -1       118 1.17000E-01 0.00000E+00 0.00000E+00
 -1       119 1.18000E-01 0.00000E+00 0.00000E+00
 -1       120 1.19000E-01 0.00000E+00 0.00000E+00
 -1       121 1.20000E-01 0.00000E+00 0.00000E+00
 -1       122 1.21000E-01 0.00000E+00 0.00000E+00
 -1       123 1.22000E-01 0.00000E+00 0.00000E+00
 -1       124 1.23000E-01 0.00000E+00 0.00000E+00
 -1       125 1.24000E-01 0.00000E+00 0.00000E+00
 -1       126 1.25000E-01 0.00000E+00 0.00000E+00
 -1       127 1.26000E-01 0.00000E+00 0.00000E+00
 -1       128 1.27000E-01 0.00000E+00 0.00000E+00
 -1       129 1.28000E-01 0.00000E+00 0.00000E+00
 -1       130 1.29000E-01 0.00000E+00 0.00000E+00
 -1       131 1.30000E-01 0.00000E+00 0.00000E+00
 -1       132 1.31000E-01 0.00000E+00 0.00000E+00
 -1       133 1.32000E-01 0.00000E+00 0.00000E+00
 -1       134 1.33000E-01 0.00000E+00 0.00000E+00
 -1       135 1.34000E-01 0.00000E+00 0.00000E+00
 -1       136 1.35000E-01 0.00000E+00 0.00000E+00
 -1       137 1.36000E-01 0.00000E+00 0.00000E+00
 -1       138 1.37000E-01 0.00000E+00 0.00000E+00
 -1       139 1.38000E-01 0.00000E+00 0.00000E+00
 -1       140 1.39000E-01 0.00000E+00 0.00000E+00
 -1       141 1.40000E-01 0.00000E+00 0.00000E+00
 -1       142 1.41000E-01 0.00000E+00 0.00000E+00
 -1       143 1.42000E-01 0.00000E+00 0.00000E+00
 -1       144 1.43000E-01 0.00000E+00 0.00000E+00
 -1       145 1.44000E-01 0.00000E+00 0.00000E+00
 -1       146 1.45000E-01 0.00000E+00 0.00000E+00
 -1       147 1.46000E-01 0.00000E+00 0.00000E+00
 -1       148 1.47000E-01 0.00000E+00 0.00000E+00
 -1       149 1.48000E-01 0.00000E+00 0.00000E+00
 -1       150 1.49000E-01 0.00000E+00 0.00000E+00
 -1       151 1.50000E-01 0.00000E+00 0.00000E+00
 -1       152 1.51000E-01 0.00000E+00 0.00000E+00
 -1       153 1.52000E-01 0.00000E+00 0.00000E+00
 -1       154 1.53000E-01 0.00000E+00 0.00000E+00
 -1       155 1.54000E-01 0.00000E+00 0.00000E+00
 -1       156 1.55000E-01 0.00000E+00 0.00000E+00
 -1       157 1.56000E-01 0.00000E+00 0.00000E+00
 -1       158 1.57000E-01 0.00000E+00 0.00000E+00
 -1       159 1.58000E-01 0.00000E+00 0.00000E+00
 -1       160 1.59000E-01 0.00000E+00 0.00000E+00
 -1       161 1.60000E-01 0.00000E+00 0.00000E+00
 -1       162 1.61000E-01 0.00000E+00 0.00000E+00
 -1       163 1.62000E-01 0.00000E+00 0.00000E+00
 -1       164 1.63000E-01 0.00000E+00 0.00000E+00
 -1       165 1.64000E-01 0.00000E+00 0.00000E+00
 -1       166 1.65000E-01 0.00000E+00 0.00000E+00
 -1       167 1.66000E-01 0.00000E+00 0.00000E+00
 -1       168 1.67000E-01 0.00000E+00 0.00000E+00
 -1       169 1.68000E-01 0.00000E+00 0.00000E+00
 -1       170 1.69000E-01 0.00000E+00 0.00000E+00
 -1       171 1.70000E-01 0.00000E+00 0.00000E+00
 -1       172 1.71000E-01 0.00000E+00 0.00000E+00
 -1       173 1.72000E-01 0.00000E+00 0.00000E+00
 -1       174 1.73000E-01 0.00000E+00 0.00000E+00
 -1       175 1.74000E-01 0.00000E+00 0.00000E+00
 -1       176 1.75000E-01 0.00000E+00 0.00000E+00
 -1       177 1.76000E-01 0.00000E+00 0.00000E+00
 -1       178 1.77000E-01 0.00000E+00 0.00000E+00
 -1       179 1.78000E-01 0.00000E+00 0.00000E+00
 -1       180 1.79000E-01 0.00000E+00 0.00000E+00
 -1       181 1.80000E-01 0.00000E+00 0.00000E+00
 -1       182 1.81000E-01 0.00000E+00 0.00000E+00
 -1       183 1.82000E-01 0.00000E+00 0.00000E+00
 -1       184 1.83000E-01 0.00000E+00 0.00000E+00
 -1       185 1.84000E-01 0.00000E+00 0.00000E+00
 -1       186 1.85000E-01 0.00000E+00 0.00000E+00
 -1       187 1.86000E-01 0.00000E+00 0.00000E+00
 -1       188 1.87000E-01 0.00000E+00 0.00000E+00
 -1       189 1.88000E-01 0.00000E+00 0.00000E+00
 -1       190 1.89000E-01 0.00000E+00 0.00000E+00
 -1       191 1.90000E-01 0.00000E+00 0.00000E+00
 -1       192 1.91000E-01 0.00000E+00 0.00000E+00
 -1       193 1.92000E-01 0.00000E+00 0.00000E+00
 -1       194 1.93000E-01 0.00000E+00 0.00000E+00
 -1       195 1.94000E-01 0.00000E+00 0.00000E+00
 -1       196 1.95000E-01 0.00000E+00 0.00000E+00
 -1       197 1.96000E-01 0.00000E+00 0.00000E+00
 -1       198 1.97000E-01 0.00000E+00 0.00000E+00
 -1       199 1.98000E-01 0.00000E+00 0.00000E+00
 -1       200 1.99000E-01 0.00000E+00 0.00000E+00
 -1       201 2.00000E-01 0.00000E+00 0.00000E+00
 -3
    3C                           200                                     1
 -1         1   11    0    1
 -2         1         2
 -1         2   11    0    1
 -2         2         3
 -1         3   11    0    1
 -2         3         4
 -1         4   11    0    1
 -2         4         5
 -1         5   11    0    1
 -2         5         6
 -1         6   11    0    1
 -2         6         7
 -1         7   11    0    1
 -2         7         8
 -1         8   11    0    1
 -2         8         9
 -1         9   11    0    1
 -2         9        10
 -1        10   11    0    1
 -2        10        11
 -1        11   11    0    1
 -2        11        12
 -1        12   11    0    1
 -2        12        13
 -1        13   11    0    1
 -2        13        14
 -1        14   11    0    1
 -2        14        15
 -1        15   11    0    1
 -2        15        16
 -1        16   11    0    1
 -2        16        17
 -1        17   11    0    1
 -2        17        18
 -1        18   11    0    1
 -2        18        19
 -1        19   11    0    1
 -2        19        20
 -1        20   11    0    1
 -2        20        21
 -1        21   11    0    1
 -2        21        22
 -1        22   11    0    1
 -2        22        23
 -1        23   11    0    1
 -2        23        24
 -1        24   11    0    1
 -2        24        25
 -1        25   11    0    1
 -2        25        26
 -1        26   11    0    1
 -2        26        27
 -1        27   11    0    1
 -2        27        28
 -1        28   11    0    1
 -2        28        29
 -1        29   11    0    1
 -2        29        30
 -1        30   11    0    1
 -2        30        31
 -1        31   11    0    1
 -2        31        32
 -1        32   11    0    1
 -2        32        33
 -1        33   11    0    1
 -2        33        34
 -1        34   11    0    1
 -2        34        35
 -1        35   11    0    1
 -2        35        36
 -1        36   11    0    1
 -2        36        37
 -1        37   11    0    1
 -2        37        38
 -1        38   11    0    1
 -2        38        39
 -1        39   11    0    1
 -2        39        40
 -1        40   11    0    1
 -2        40        41
 -1        41   11    0    1
 -2        41        42
 -1        42   11    0    1
 -2        42        43
 -1        43   11    0    1
 -2        43        44
 -1        44   11    0    1
 -2        44        45
 -1        45   11    0    1
 -2        45        46
 -1        46   11    0    1
 -2        46        47
 -1        47   11    0    1
 -2        47        48
 -1        48   11    0    1
 -2        48        49
 -1        49   11    0    1
 -2        49        50
 -1        50   11    0    1
 -2        50        51
 -1        51   11    0    1
 -2        51        52
 -1        52   11    0    1
 -2        52        53
 -1        53   11    0    1
 -2        53        54
 -1        54   11    0    1
 -2        54        55
 -1        55   11    0    1
 -2        55        56
 -1        56   11    0    1
 -2        56        57
 -1        57   11    0    1
 -2        57        58
 -1        58   11    0    1
 -2        58        59
 -1        59   11    0    1
 -2        59        60
 -1        60   11    0    1
 -2        60        61
 -1        61   11    0    1
 -2        61        62
 -1        62   11    0    1
 -2        62        63
 -1        63   11    0    1
 -2        63        64
 -1        64   11    0    1
 -2        64        65
 -1        65   11    0    1
 -2        65        66
 -1        66   11    0    1
 -2        66        67
 -1        67   11    0    1
 -2        67        68
 -1        68   11    0    1
 -2        68        69
 -1        69   11    0    1
 -2        69        70
 -1        70   11    0    1
 -2        70        71
 -1        71   11    0    1
 -2        71        72
 -1        72   11    0    1
 -2        72        73
 -1        73   11    0    1
 -2        73        74
 -1        74   11    0    1
 -2        74        75
 -1        75   11    0    1
 -2        75        76
 -1        76   11    0    1
 -2        76        77
 -1        77   11    0    1
 -2        77        78
 -1        78   11    0    1
 -2        78        79
 -1        79   11    0    1
 -2        79        80
 -1        80   11    0    1
 -2        80        81
 -1        81   11    0    1
 -2        81        82
 -1        82   11    0    1
 -2        82        83
 -1        83   11    0    1
 -2        83        84
 -1        84   11    0    1
 -2        84        85
 -1        85   11    0    1
 -2        85        86
 -1        86   11    0    1
 -2        86        87
 -1        87   11    0    1
 -2        87        88
 -1        88   11    0    1
 -2        88        89
 -1        89   11    0    1
 -2        89        90
 -1        90   11    0    1
 -2        90        91
 -1        91   11    0    1
 -2        91        92
 -1        92   11    0    1
 -2        92        93
 -1        93   11    0    1
 -2        93        94
 -1        94   11    0    1
 -2        94        95
 -1        95   11    0    1
 -2        95        96
 -1        96   11    0    1
 -2        96        97
 -1        97   11    0    1
 -2        97        98
 -1        98   11    0    1
 -2        98        99
 -1        99   11    0    1
 -2        99       100
 -1       100   11    0    1
 -2       100       101
 -1       101   11    0    1
 -2       101       102
 -1       102   11    0    1
 -2       102       103
 -1       103   11    0    1
 -2       103       104
 -1       104   11    0    1
 -2       104       105
 -1       105   11    0    1
 -2       105       106
 -1       106   11    0    1
 -2       106       107
 -1       107   11    0    1
 -2       107       108
 -1       108   11    0    1
 -2       108       109
 -1       109   11    0    1
 -2       109       110
 -1       110   11    0    1
 -2       110       111
 -1       111   11    0    1
 -2       111       112
 -1       112   11    0    1
 -2       112       113
 -1       113   11    0    1
 -2       113       114
 -1       114   11    0    1
 -2       114       115
 -1       115   11    0    1
 -2       115       116
 -1       116   11    0    1
 -2       116       117
 -1       117   11    0    1
 -2       117       118
 -1       118   11    0    1
 -2       118       119
 -1       119   11    0    1
 -2       119       120
 -1       120   11    0    1
 -2       120       121
 -1       121   11    0    1
 -2       121       122
 -1       122   11    0    1
 -2       122       123
 -1       123   11    0    1
 -2       123       124
 -1       124   11    0    1
 -2       124       125
 -1       125   11    0    1
 -2       125       126
 -1       126   11    0    1
 -2       126       127
 -1       127   11    0    1
 -2       127       128
 -1       128   11    0    1
 -2       128       129
 -1       129   11    0    1
 -2       129       130
 -1       130   11    0    1
 -2       130       131
 -1       131   11    0    1
 -2       131       132
 -1       132   11    0    1
 -2       132       133
 -1       133   11    0    1
 -2       133       134
 -1       134   11    0    1
 -2       134       135
 -1       135   11    0    1
 -2       135       136
 -1       136   11    0    1
 -2       136       137
 -1       137   11    0    1
 -2       137       138
 -1       138   11    0    1
 -2       138       139
 -1       139   11    0    1
 -2       139       140
 -1       140   11    0    1
 -2       140       141
 -1       141   11    0    1
 -2       141       142
 -1       142   11    0    1
 -2       142       143
 -1       143   11    0    1
 -2       143       144
 -1       144   11    0    1
 -2       144       145
 -1       145   11    0    1
 -2       145       146
 -1       146   11    0    1
 -2       146       147
 -1       147   11    0    1
 -2       147       148
 -1       148   11    0    1
 -2       148       149
 -1       149   11    0    1
 -2       149       150
 -1       150   11    0    1
 -2       150       151
 -1       151   11    0    1
 -2       151       152
 -1       152   11    0    1
 -2       152       153
 -1       153   11    0    1
 -2       153       154
 -1       154   11    0    1
 -2       154       155
 -1       155   11    0    1
 -2       155       156
 -1       156   11    0    1
 -2       156       157
 -1       157   11    0    1
 -2       157       158
 -1       158   11    0    1
 -2       158       159
 -1       159   11    0    1
 -2       159       160
 -1       160   11    0    1
 -2       160       161
 -1       161   11    0    1
 -2       161       162
 -1       162   11    0    1
 -2       162       163
 -1       163   11    0    1
 -2       163       164
 -1       164   11    0    1
 -2       164       165
 -1       165   11    0    1
 -2       165       166
 -1       166   11    0    1
 -2       166       167
 -1       167   11    0    1
 -2       167       168
 -1       168   11    0    1
 -2       168       169
 -1       169   11    0    1
 -2       169       170
 -1       170   11    0    1
 -2       170       171
 -1       171   11    0    1
 -2       171       172
 -1       172   11    0    1
 -2       172       173
 -1       173   11    0    1
 -2       173       174
 -1       174   11    0    1
 -2       174       175
 -1       175   11    0    1
 -2       175       176
 -1       176   11    0    1
 -2       176       177
 -1       177   11    0    1
 -2       177       178
 -1       178   11    0    1
 -2       178       179
 -1       179   11    0    1
 -2       179       180
 -1       180   11    0    1
 -2       180       181
 -1       181   11    0    1
 -2       181       182
 -1       182   11    0    1
 -2       182       183
 -1       183   11    0    1
 -2       183       184
 -1       184   11    0    1
 -2       184       185
 -1       185   11    0    1
 -2       185       186
 -1       186   11    0    1
 -2       186       187
 -1       187   11    0    1
 -2       187       188
 -1       188   11    0    1
 -2       188       189
 -1       189   11    0    1
 -2       189       190
 -1       190   11    0    1
 -2       190       191
 -1       191   11    0    1
 -2       191       192
 -1       192   11    0    1
 -2       192       193
 -1       193   11    0    1
 -2       193       194
 -1       194   11    0    1
 -2       194       195
 -1       195   11    0    1
 -2       195       196
 -1       196   11    0    1
 -2       196       197
 -1       197   11    0    1
 -2       197       198
 -1       198   11    0    1
 -2       198       199
 -1       199   11    0    1
 -2       199       200
 -1       200   11    0    1
 -2       200       201
 -3
    1PSTEP                         1           1           1          
    1PGM                1.000000E+00                                  
    1PGK                5.673844E+00                                  
    1PHID                         -1                                  
    1PSUBC                         0                                  
    1PMODE                         1                                  
  100CL  101 3.79104E-01         201                     2    1MODAL      1
 -4  DISP        4    1
 -5  D1          1    2    1    0
 -5  D2          1    2    2    0
 -5  D3          1    2    3    0
 -5  ALL         1    2    0    0    1ALL
 -1         1-4.13590E-25 0.00000E+00 1.16359E-24
 -1         2-7.10012E-16-6.34800E-17 5.04253E-06
 -1         3-1.15348E-15-1.30538E-16 2.01486E-05
 -1         4-1.52730E-15-1.95427E-16 4.52768E-05
 -1         5-2.51790E-15-2.59395E-16 8.03860E-05
 -1         6-2.92739E-15-3.19569E-16 1.25435E-04
 -1         7-3.25659E-15-3.81693E-16 1.80383E-04
 -1         8-3.94280E-15-4.36500E-16 2.45190E-04
 -1         9-4.12413E-15-4.93529E-16 3.19816E-04
 -1        10-4.60129E-15-5.51696E-16 4.04219E-04
 -1        11-5.16720E-15-6.09105E-16 4.98360E-04
 -1        12-5.53731E-15-6.68194E-16 6.02200E-04
 -1        13-6.05325E-15-7.36986E-16 7.15698E-04
 -1        14-6.66966E-15-8.03069E-16 8.38816E-04
 -1        15-7.20118E-15-8.68121E-16 9.71514E-04
 -1        16-7.79429E-15-9.33335E-16 1.11375E-03
 -1        17-8.32313E-15-9.98225E-16 1.26549E-03
 -1        18-8.71942E-15-1.06908E-15 1.42670E-03
 -1        19-9.51212E-15-1.14145E-15 1.59733E-03
 -1        20-9.94200E-15-1.21615E-15 1.77735E-03
 -1        21-1.05816E-14-1.29465E-15 1.96672E-03
 -1        22-1.12965E-14-1.37574E-15 2.16540E-03
 -1        23-1.16815E-14-1.46015E-15 2.37335E-03
 -1        24-1.22762E-14-1.54455E-15 2.59054E-03
 -1        25-1.29112E-14-1.61904E-15 2.81693E-03
 -1        26-1.36892E-14-1.69548E-15 3.05248E-03
 -1        27-1.41814E-14-1.77126E-15 3.29716E-03
 -1        28-1.47108E-14-1.84542E-15 3.55093E-03
 -1        29-1.52258E-14-1.92386E-15 3.81375E-03
 -1        30-1.57725E-14-2.00176E-15 4.08559E-03
 -1        31-1.64285E-14-2.07706E-15 4.36641E-03
 -1        32-1.65193E-14-2.15718E-15 4.65617E-03
 -1        33-1.68457E-14-2.24213E-15 4.95484E-03
 -1        34-1.74734E-14-2.32697E-15 5.26239E-03
 -1        35-1.81710E-14-2.41284E-15 5.57878E-03
 -1        36-1.86618E-14-2.49909E-15 5.90397E-03
 -1        37-1.91461E-14-2.59130E-15 6.23793E-03
 -1        38-1.98932E-14-2.68839E-15 6.58063E-03
 -1        39-2.03746E-14-2.78705E-15 6.93202E-03
 -1        40-2.07841E-14-2.89281E-15 7.29208E-03
 -1        41-2.11419E-14-3.00254E-15 7.66078E-03
 -1        42-2.18150E-14-3.11795E-15 8.03807E-03
 -1        43-2.22212E-14-3.22854E-15 8.42393E-03
 -1        44-2.25466E-14-3.34536E-15 8.81833E-03
 -1        45-2.30690E-14-3.46245E-15 9.22122E-03
 -1        46-2.32249E-14-3.58014E-15 9.63258E-03
 -1        47-2.35176E-14-3.70320E-15 1.00524E-02
 -1        48-2.39957E-14-3.82902E-15 1.04806E-02
 -1        49-2.45728E-14-3.96130E-15 1.09171E-02
 -1        50-2.52963E-14-4.09292E-15 1.13620E-02
 -1        51-2.56649E-14-4.22600E-15 1.18152E-02
 -1        52-2.62612E-14-4.36874E-15 1.22767E-02
 -1        53-2.70090E-14-4.50703E-15 1.27464E-02
 -1        54-2.73574E-14-4.64499E-15 1.32243E-02
 -1        55-2.80033E-14-4.78925E-15 1.37104E-02
 -1        56-2.84971E-14-4.93328E-15 1.42047E-02
 -1        57-2.89000E-14-5.07884E-15 1.47071E-02
 -1        58-2.95285E-14-5.22493E-15 1.52175E-02
 -1        59-2.97639E-14-5.37168E-15 1.57360E-02
 -1        60-2.98925E-14-5.51816E-15 1.62626E-02
 -1        61-3.04613E-14-5.65964E-15 1.67971E-02
 -1        62-3.08544E-14-5.79511E-15 1.73396E-02
 -1        63-3.14272E-14-5.92500E-15 1.78901E-02
 -1        64-3.21333E-14-6.05641E-15 1.84484E-02
 -1        65-3.25593E-14-6.18825E-15 1.90146E-02
 -1        66-3.31145E-14-6.31824E-15 1.95887E-02
 -1        67-3.37380E-14-6.45263E-15 2.01706E-02
 -1        68-3.40621E-14-6.58360E-15 2.07603E-02
 -1        69-3.47942E-14-6.71604E-15 2.13578E-02
 -1        70-3.55171E-14-6.84668E-15 2.19630E-02
 -1        71-3.58703E-14-6.98085E-15 2.25759E-02
 -1        72-3.65925E-14-7.11605E-15 2.31965E-02
 -1        73-3.71137E-14-7.24963E-15 2.38247E-02
 -1        74-3.76825E-14-7.38683E-15 2.44606E-02
 -1        75-3.81035E-14-7.51938E-15 2.51041E-02
 -1        76-3.87660E-14-7.65262E-15 2.57551E-02
 -1        77-3.92990E-14-7.79119E-15 2.64137E-02
 -1        78-3.95267E-14-7.92400E-15 2.70798E-02
 -1        79-3.98412E-14-8.06294E-15 2.77534E-02
 -1        80-3.99271E-14-8.20513E-15 2.84345E-02
 -1        81-4.04114E-14-8.35042E-15 2.91230E-02
 -1        82-4.09040E-14-8.49597E-15 2.98190E-02
 -1        83-4.13838E-14-8.63719E-15 3.05223E-02
 -1        84-4.19202E-14-8.77916E-15 3.12330E-02
 -1        85-4.22698E-14-8.92369E-15 3.19510E-02
 -1        86-4.26349E-14-9.06794E-15 3.26764E-02
 -1        87-4.29921E-14-9.21528E-15 3.34090E-02
 -1        88-4.33635E-14-9.37141E-15 3.41490E-02
 -1        89-4.38510E-14-9.52678E-15 3.48961E-02
 -1        90-4.41785E-14-9.68442E-15 3.56505E-02
 -1        91-4.41773E-14-9.84477E-15 3.64121E-02
 -1        92-4.46100E-14-1.00060E-14 3.71808E-02
 -1        93-4.50749E-14-1.01726E-14 3.79567E-02
 -1        94-4.56030E-14-1.03409E-14 3.87397E-02
 -1        95-4.59565E-14-1.05120E-14 3.95299E-02
 -1        96-4.63923E-14-1.06848E-14 4.03271E-02
 -1        97-4.71515E-14-1.08617E-14 4.11313E-02
 -1        98-4.74114E-14-1.10383E-14 4.19426E-02
 -1        99-4.82110E-14-1.12207E-14 4.27609E-02
 -1       100-4.87193E-14-1.14085E-14 4.35863E-02
 -1       101-4.92827E-14-1.16022E-14 4.44185E-02
 -1       102-5.01177E-14-1.17912E-14 4.52578E-02
 -1       103-5.05673E-14-1.19832E-14 4.61039E-02
 -1       104-5.11966E-14-1.21795E-14 4.69570E-02
 -1       105-5.15895E-14-1.23747E-14 4.78169E-02
 -1       106-5.19464E-14-1.25712E-14 4.86837E-02
 -1       107-5.23805E-14-1.27739E-14 4.95574E-02
 -1       108-5.30056E-14-1.29820E-14 5.04379E-02
 -1       109-5.36473E-14-1.31921E-14 5.13252E-02
 -1       110-5.39520E-14-1.34092E-14 5.22192E-02
 -1       111-5.41152E-14-1.36286E-14 5.31201E-02
 -1       112-5.46180E-14-1.38485E-14 5.40276E-02
 -1       113-5.50141E-14-1.40742E-14 5.49420E-02
 -1       114-5.54393E-14-1.43001E-14 5.58630E-02
 -1       115-5.58090E-14-1.45250E-14 5.67907E-02
 -1       116-5.59821E-14-1.47551E-14 5.77251E-02
 -1       117-5.59508E-14-1.49918E-14 5.86661E-02
 -1       118-5.61572E-14-1.52322E-14 5.96137E-02
 -1       119-5.67766E-14-1.54729E-14 6.05680E-02
 -1       120-5.72163E-14-1.57168E-14 6.15289E-02
 -1       121-5.77679E-14-1.59589E-14 6.24964E-02
 -1       122-5.79991E-14-1.62066E-14 6.34704E-02
 -1       123-5.83747E-14-1.64527E-14 6.44509E-02
 -1       124-5.90308E-14-1.66940E-14 6.54380E-02
 -1       125-5.92747E-14-1.69388E-14 6.64317E-02
 -1       126-5.96429E-14-1.71779E-14 6.74318E-02
 -1       127-6.02293E-14-1.74188E-14 6.84384E-02
 -1       128-6.05273E-14-1.76627E-14 6.94514E-02
 -1       129-6.08526E-14-1.79046E-14 7.04709E-02
 -1       130-6.13743E-14-1.81452E-14 7.14968E-02
 -1       131-6.15411E-14-1.83892E-14 7.25292E-02
 -1       132-6.17657E-14-1.86327E-14 7.35679E-02
 -1       133-6.23267E-14-1.88767E-14 7.46131E-02
 -1       134-6.25295E-14-1.91177E-14 7.56646E-02
 -1       135-6.28430E-14-1.93594E-14 7.67225E-02
 -1       136-6.29826E-14-1.96025E-14 7.77867E-02
 -1       137-6.31373E-14-1.98423E-14 7.88572E-02
 -1       138-6.34257E-14-2.00818E-14 7.99341E-02
 -1       139-6.35093E-14-2.03220E-14 8.10173E-02
 -1       140-6.37542E-14-2.05634E-14 8.21067E-02
 -1       141-6.39339E-14-2.08042E-14 8.32025E-02
 -1       142-6.41602E-14-2.10468E-14 8.43044E-02
 -1       143-6.45476E-14-2.12847E-14 8.54127E-02
 -1       144-6.50251E-14-2.15242E-14 8.65272E-02
 -1       145-6.51679E-14-2.17648E-14 8.76479E-02
 -1       146-6.51682E-14-2.20113E-14 8.87748E-02
 -1       147-6.55340E-14-2.22625E-14 8.99079E-02
 -1       148-6.58176E-14-2.25147E-14 9.10472E-02
 -1       149-6.60835E-14-2.27681E-14 9.21927E-02
 -1       150-6.61941E-14-2.30214E-14 9.33443E-02
 -1       151-6.61942E-14-2.32756E-14 9.45021E-02
 -1       152-6.65728E-14-2.35387E-14 9.56660E-02
 -1       153-6.70008E-14-2.37974E-14 9.68361E-02
 -1       154-6.75091E-14-2.40504E-14 9.80123E-02
 -1       155-6.77383E-14-2.43050E-14 9.91946E-02
 -1       156-6.78012E-14-2.45602E-14 1.00383E-01
 -1       157-6.81659E-14-2.48127E-14 1.01578E-01
 -1       158-6.81339E-14-2.50705E-14 1.02778E-01
 -1       159-6.82058E-14-2.53304E-14 1.03985E-01
 -1       160-6.82296E-14-2.55862E-14 1.05197E-01
 -1       161-6.83847E-14-2.58415E-14 1.06416E-01
 -1       162-6.87562E-14-2.60947E-14 1.07641E-01
 -1       163-6.90466E-14-2.63491E-14 1.08872E-01
 -1       164-6.94238E-14-2.66049E-14 1.10109E-01
 -1       165-6.94450E-14-2.68608E-14 1.11352E-01
 -1       166-6.95230E-14-2.71234E-14 1.12601E-01
 -1       167-7.00385E-14-2.73947E-14 1.13856E-01
 -1       168-7.02849E-14-2.76674E-14 1.15116E-01
 -1       169-7.03494E-14-2.79458E-14 1.16383E-01
 -1       170-7.03181E-14-2.82204E-14 1.17656E-01
 -1       171-7.03321E-14-2.85004E-14 1.18935E-01
 -1       172-7.05193E-14-2.87768E-14 1.20220E-01
 -1       173-7.05772E-14-2.90548E-14 1.21511E-01
 -1       174-7.05004E-14-2.93343E-14 1.22807E-01
 -1       175-7.03559E-14-2.96168E-14 1.24110E-01
 -1       176-7.04382E-14-2.98992E-14 1.25419E-01
 -1       177-7.04093E-14-3.01845E-14 1.26733E-01
 -1       178-7.02576E-14-3.04676E-14 1.28054E-01
 -1       179-7.06405E-14-3.07538E-14 1.29380E-01
 -1       180-7.06138E-14-3.10460E-14 1.30713E-01
 -1       181-7.05248E-14-3.13389E-14 1.32051E-01
 -1       182-7.05548E-14-3.16353E-14 1.33395E-01
 -1       183-7.03288E-14-3.19308E-14 1.34745E-01
 -1       184-7.03843E-14-3.22269E-14 1.36101E-01
 -1       185-7.04453E-14-3.25265E-14 1.37463E-01
 -1       186-7.05522E-14-3.28293E-14 1.38831E-01
 -1       187-7.03384E-14-3.31278E-14 1.40205E-01
 -1       188-7.00883E-14-3.34283E-14 1.41584E-01
 -1       189-6.97944E-14-3.37367E-14 1.42970E-01
 -1       190-6.96240E-14-3.40499E-14 1.44361E-01
 -1       191-6.94327E-14-3.43635E-14 1.45759E-01
 -1       192-6.90258E-14-3.46761E-14 1.47162E-01
 -1       193-6.90195E-14-3.49871E-14 1.48571E-01
 -1       194-6.91134E-14-3.52997E-14 1.49986E-01
 -1       195-6.94840E-14-3.56133E-14 1.51406E-01
 -1       196-6.98839E-14-3.59277E-14 1.52833E-01
 -1       197-7.01718E-14-3.62388E-14 1.54266E-01
 -1       198-7.01348E-14-3.65489E-14 1.55704E-01
 -1       199-7.00136E-14-3.68641E-14 1.57148E-01
 -1       200-7.02672E-14-3.71730E-14 1.58598E-01
 -1       201-7.01156E-14-3.74835E-14 1.60054E-01
 -3
    1PSTEP                         2           1           1          
    1PGM                1.000000E+00                                  
    1PGK                5.673844E+00                                  
    1PHID                         -1                                  
    1PSUBC                         0                                  
    1PMODE                         1                                  
  100CL  101 3.79104E-01         201                     2    1MODAL      1
 -4  STRESS      6    1
 -5  SXX         1    4    1    1
 -5  SYY         1    4    2    2
 -5  SZZ         1    4    3    3
 -5  SXY         1    4    1    2
 -5  SYZ         1    4    2    3
 -5  SZX         1    4    3    1
 -1         1-5.52403E-02 2.77180E-02 1.00057E-06-2.65681E-03 2.63116E+02 1.67969E+04
 -1         2-5.52480E-02 1.24676E-01-3.03584E-05-2.70463E-03-6.81027E+01 1.67157E+04
 -1         3-5.52707E-02-1.67773E-01-7.38240E-05-2.67827E-03 1.76269E+01 1.66345E+04
 -1         4-5.51987E-02 7.36445E-02 1.03940E-04-2.55678E-03-4.56189E+00 1.65533E+04
 -1         5-5.52120E-02 2.84572E-01 6.64934E-05-2.39989E-03 1.18136E+00 1.64720E+04
 -1         6-5.52903E-02-3.52638E-01-1.00645E-04-2.30437E-03-3.05006E-01 1.63908E+04
 -1         7-5.52212E-02 2.25812E-01 3.07669E-06-2.13735E-03 8.00059E-02 1.63096E+04
 -1         8-5.49552E-02-9.06285E-02 6.83911E-04-1.97202E-03-1.95425E-02 1.62284E+04
 -1         9-5.51469E-02-1.44263E-01 2.84316E-04-1.98468E-03 6.20694E-03 1.61471E+04
 -1        10-5.53859E-02 1.25732E-01-2.84585E-04-1.93660E-03-9.65830E-05 1.60659E+04
 -1        11-5.51927E-02-7.92805E-02 1.94314E-04-1.90029E-03 1.67175E-03 1.59846E+04
 -1        12-5.52620E-02-1.76196E-02-8.43998E-05-2.08474E-03 1.44422E-03 1.59034E+04
 -1        13-5.50059E-02 2.78041E-02 5.35546E-04-2.17668E-03 1.63717E-03 1.58221E+04
 -1        14-5.51745E-02 5.63173E-02 2.25799E-04-2.04030E-03 1.78151E-03 1.57409E+04
 -1        15-5.51470E-02-3.45623E-02 1.37888E-04-1.96688E-03 1.85276E-03 1.56596E+04
 -1        16-5.54224E-02 1.01349E-01-5.71578E-04-1.90678E-03 1.83624E-03 1.55783E+04
 -1        17-5.50118E-02-8.16705E-02 5.09006E-04-1.96849E-03 2.11625E-03 1.54970E+04
 -1        18-5.55152E-02 3.99356E-03-6.36580E-04-2.07020E-03 2.22680E-03 1.54158E+04
 -1        19-5.51360E-02 2.08452E-01 4.71755E-04-2.09567E-03 2.30446E-03 1.53345E+04
 -1        20-5.49933E-02-2.61227E-01 1.79736E-04-2.16810E-03 2.44365E-03 1.52532E+04
 -1        21-5.50560E-02 3.62604E-01 5.31862E-04-2.24755E-03 2.61584E-03 1.51718E+04
 -1        22-5.47553E-02-2.05549E-01 1.32198E-03-2.31531E-03 2.65925E-03 1.50905E+04
 -1        23-5.53165E-02 1.20081E-01-3.09844E-04-2.32874E-03 2.79626E-03 1.50092E+04
 -1        24-5.48179E-02-5.22263E-02 1.07960E-03-2.06105E-03 3.07798E-03 1.49278E+04
 -1        25-5.50148E-02 1.49996E-01 1.18934E-03-1.83365E-03 3.00015E-03 1.48465E+04
 -1        26-5.51919E-02 5.19130E-02-3.20859E-04-1.80511E-03 3.38249E-03 1.47651E+04
 -1        27-5.53912E-02-5.96286E-02 9.96002E-05-1.70086E-03 3.35909E-03 1.46837E+04
 -1        28-5.52415E-02 7.88525E-02-5.77818E-04-1.69854E-03 3.46896E-03 1.46023E+04
 -1        29-5.60899E-02-6.97185E-02-1.12544E-03-1.72154E-03 3.49987E-03 1.45209E+04
 -1        30-5.52815E-02 1.02053E-01-8.54344E-04-1.59872E-03 3.71446E-03 1.44395E+04
 -1        31-5.55379E-02 1.12784E-02-1.30798E-03-1.58735E-03 3.81985E-03 1.43581E+04
 -1        32-5.47906E-02-3.11371E-01 6.28410E-04-1.73605E-03 3.99833E-03 1.42767E+04
 -1        33-5.48122E-02 1.83821E-01 7.22285E-04-1.78041E-03 4.19480E-03 1.41952E+04
 -1        34-5.61250E-02-9.19584E-02-1.76181E-03-1.74327E-03 4.32162E-03 1.41137E+04
 -1        35-5.55719E-02 2.32654E-01-1.13740E-03-1.71554E-03 4.45108E-03 1.40322E+04
 -1        36-5.56075E-02-2.42488E-01 4.56922E-04-1.79340E-03 4.45426E-03 1.39507E+04
 -1        37-5.64023E-02 2.26250E-01-1.35316E-03-1.96749E-03 4.56263E-03 1.38692E+04
 -1        38-5.50675E-02-5.07737E-02 1.21390E-03-2.04841E-03 4.90349E-03 1.37877E+04
 -1        39-5.71314E-02 3.09995E-02-1.05037E-03-2.17811E-03 4.81282E-03 1.37061E+04
 -1        40-5.68615E-02-1.08670E-01-9.98752E-04-2.35733E-03 5.07828E-03 1.36246E+04
 -1        41-5.54370E-02-6.52143E-03 2.61532E-03-2.50429E-03 5.21655E-03 1.35430E+04
 -1        42-5.79242E-02 1.23889E-01-4.34686E-03-2.46904E-03 5.35242E-03 1.34614E+04
 -1        43-5.76558E-02-2.04925E-01-1.25411E-03-2.44557E-03 5.37888E-03 1.33797E+04
 -1        44-5.67446E-02 6.42779E-02-8.32380E-05-2.52690E-03 5.34139E-03 1.32981E+04
 -1        45-5.57640E-02-6.07092E-02 1.90270E-03-2.49091E-03 5.73014E-03 1.32164E+04
 -1        46-5.76964E-02-2.01566E-01-6.08971E-04-2.56217E-03 5.64921E-03 1.31348E+04
 -1        47-5.77465E-02 3.22307E-02-1.61419E-03-2.67855E-03 5.98193E-03 1.30531E+04
 -1        48-5.69804E-02-5.95067E-02-9.70789E-04-2.81668E-03 6.00127E-03 1.29713E+04
 -1        49-5.63444E-02 1.04042E-01 2.38780E-03-2.88143E-03 6.14574E-03 1.28896E+04
 -1        50-5.87948E-02 4.55705E-02-5.59946E-03-2.84108E-03 6.23796E-03 1.28078E+04
 -1        51-5.56707E-02-1.58055E-01 4.96939E-03-3.01757E-03 6.30736E-03 1.27260E+04
 -1        52-5.62242E-02 2.13982E-01 4.21613E-03-3.06657E-03 6.59735E-03 1.26442E+04
 -1        53-5.70049E-02-4.61094E-02-7.95949E-04-2.90381E-03 6.48102E-03 1.25624E+04
 -1        54-5.70083E-02-7.79996E-02-7.60733E-04-2.96885E-03 6.76321E-03 1.24805E+04
 -1        55-5.49840E-02 1.74520E-01 5.31004E-03-3.03652E-03 6.85292E-03 1.23987E+04
 -1        56-5.81019E-02-1.90671E-01-4.75624E-03-2.99998E-03 6.77911E-03 1.23168E+04
 -1        57-5.44833E-02 1.11695E-01 2.34776E-03-2.97866E-03 7.02590E-03 1.22348E+04
 -1        58-5.46819E-02-1.84842E-02 1.88994E-03-2.94195E-03 7.02725E-03 1.21529E+04
 -1        59-5.46194E-02-1.74583E-01 4.31925E-03-2.88729E-03 7.30931E-03 1.20709E+04
 -1        60-5.14712E-02-9.82221E-02 6.03957E-03-2.71059E-03 7.43865E-03 1.19889E+04
 -1        61-5.36965E-02 1.54688E-01 2.45330E-03-2.41250E-03 7.53946E-03 1.19069E+04
 -1        62-5.43288E-02-2.26773E-01-1.20534E-03-2.09989E-03 7.53544E-03 1.18248E+04
 -1        63-5.28580E-02 2.90570E-01 2.29713E-03-1.94467E-03 7.69836E-03 1.17427E+04
 -1        64-5.16083E-02-1.29420E-01 4.82029E-03-1.91693E-03 7.71061E-03 1.16606E+04
 -1        65-5.36954E-02 8.47084E-02 1.91014E-03-1.81640E-03 7.73179E-03 1.15785E+04
 -1        66-5.41765E-02-3.56832E-02-1.68769E-03-1.79759E-03 8.01054E-03 1.14963E+04
 -1        67-5.27443E-02 1.28786E-01 6.55039E-03-1.74392E-03 8.07227E-03 1.14141E+04
 -1        68-5.65431E-02-2.56072E-01-3.83063E-03-1.62999E-03 8.17594E-03 1.13319E+04
 -1        69-5.34752E-02 4.27881E-01 1.49508E-03-1.55118E-03 8.39178E-03 1.12497E+04
 -1        70-5.40267E-02-2.59696E-01 7.78056E-04-1.51564E-03 8.44722E-03 1.11674E+04
 -1        71-5.37944E-02 1.63457E-01-2.53094E-03-1.54007E-03 8.46509E-03 1.10851E+04
 -1        72-5.56585E-02 9.23090E-03-3.10733E-03-1.45811E-03 8.49738E-03 1.10028E+04
 -1        73-5.68796E-02 4.04847E-03-4.84499E-03-1.43036E-03 8.76674E-03 1.09204E+04
 -1        74-5.39168E-02 4.65858E-02-3.30579E-05-1.33850E-03 8.81656E-03 1.08380E+04
 -1        75-5.16732E-02-9.17905E-02 1.82337E-03-1.18777E-03 8.84336E-03 1.07555E+04
 -1        76-5.16139E-02 2.30481E-01-6.14073E-04-1.24595E-03 8.94258E-03 1.06731E+04
 -1        77-5.11363E-02-1.82859E-01-1.64392E-03-1.16666E-03 8.90522E-03 1.05906E+04
 -1        78-4.92902E-02 1.93035E-02 5.18952E-03-1.10452E-03 9.06986E-03 1.05080E+04
 -1        79-4.75223E-02-1.18978E-01 2.87241E-03-1.23232E-03 9.04361E-03 1.04255E+04
 -1        80-4.97816E-02-1.44191E-01-6.29024E-03-1.29417E-03 9.12358E-03 1.03429E+04
 -1        81-5.27558E-02 1.67070E-01-4.37951E-03-1.29302E-03 9.15243E-03 1.02602E+04
 -1        82-4.53952E-02-1.31404E-01 2.04241E-03-1.13491E-03 9.35226E-03 1.01776E+04
 -1        83-4.65686E-02 1.72004E-01 9.15077E-03-9.87410E-04 9.12664E-03 1.00949E+04
 -1        84-4.85466E-02-1.07372E-01-3.65963E-03-9.84822E-04 9.32945E-03 1.00121E+04
 -1        85-4.65444E-02 4.79614E-02-1.35651E-04-9.60072E-04 9.37377E-03 9.92936E+03
 -1        86-4.45370E-02-7.99665E-02-3.87217E-03-9.49878E-04 9.37629E-03 9.84655E+03
 -1        87-4.71829E-02 4.35964E-02-2.94350E-03-1.12734E-03 9.42682E-03 9.76370E+03
 -1        88-4.27471E-02-7.76541E-02 9.79425E-03-1.22155E-03 9.31452E-03 9.68079E+03
 -1        89-4.28592E-02 1.40806E-01-6.21643E-04-1.17508E-03 9.60967E-03 9.59787E+03
 -1        90-4.45933E-02-1.96960E-01 1.35102E-03-1.20134E-03 9.60656E-03 9.51492E+03
 -1        91-4.19709E-02-8.83447E-02-3.72583E-03-1.19325E-03 9.48717E-03 9.43191E+03
 -1        92-4.05295E-02 1.26294E-01 9.56311E-03-1.23956E-03 9.60497E-03 9.34887E+03
 -1        93-4.24510E-02-7.53562E-02 2.05523E-03-1.30658E-03 9.42678E-03 9.26580E+03
 -1        94-4.34263E-02 1.84315E-01-2.99018E-04-1.31559E-03 9.71174E-03 9.18270E+03
 -1        95-4.09987E-02-2.22654E-01 1.36230E-02-1.31854E-03 9.62384E-03 9.09956E+03
 -1        96-4.92833E-02 2.38985E-01-3.26432E-03-1.34913E-03 9.70050E-03 9.01638E+03
 -1        97-4.78223E-02-1.02454E-03-9.04774E-03-1.34012E-03 9.61114E-03 8.93315E+03
 -1        98-4.82218E-02-1.26152E-01-6.21099E-05-1.36464E-03 9.62065E-03 8.84987E+03
 -1        99-5.21564E-02 3.81194E-01-3.15732E-03-1.50898E-03 9.54366E-03 8.76656E+03
 -1       100-5.57823E-02-3.49669E-01-1.00564E-02-1.65432E-03 9.47228E-03 8.68321E+03
 -1       101-5.06929E-02 4.31831E-01-1.10038E-02-1.58715E-03 9.52156E-03 8.59983E+03
 -1       102-5.07617E-02-1.43416E-01 3.24441E-03-1.46234E-03 9.47228E-03 8.51640E+03
 -1       103-4.92376E-02 1.33053E-01-4.77199E-03-1.52606E-03 9.58790E-03 8.43293E+03
 -1       104-4.81301E-02-3.52278E-04 6.33593E-03-1.50730E-03 9.38212E-03 8.34944E+03
 -1       105-4.60466E-02-2.45285E-02-5.07050E-03-1.42466E-03 9.42796E-03 8.26590E+03
 -1       106-4.50718E-02-2.84134E-02 9.11288E-03-1.49344E-03 9.51480E-03 8.18231E+03
 -1       107-4.63116E-02 3.69087E-02-2.92990E-03-1.64838E-03 9.38648E-03 8.09869E+03
 -1       108-4.27593E-02 1.33170E-01-5.30046E-03-1.71881E-03 9.36656E-03 8.01503E+03
 -1       109-3.80715E-02 4.66917E-02 2.07404E-02-1.82524E-03 9.22461E-03 7.93133E+03
 -1       110-3.59583E-02-9.09683E-02 8.04738E-03-1.94115E-03 9.24272E-03 7.84758E+03
 -1       111-3.42823E-02-2.51592E-02-4.01489E-04-1.91813E-03 9.16241E-03 7.76376E+03
 -1       112-3.99639E-02 1.46268E-01-2.08643E-04-1.96590E-03 9.04923E-03 7.67992E+03
 -1       113-3.81707E-02-1.36302E-01 1.04237E-02-2.00659E-03 8.98141E-03 7.59601E+03
 -1       114-3.18730E-02 2.05101E-01 4.06092E-03-1.89993E-03 8.81161E-03 7.51205E+03
 -1       115-3.36382E-02-1.60175E-01 1.70149E-03-1.89642E-03 8.91062E-03 7.42806E+03
 -1       116-3.04072E-02 6.17285E-02 4.51693E-03-2.05590E-03 8.76179E-03 7.34402E+03
 -1       117-3.20395E-02-2.83402E-01-4.93184E-03-2.17897E-03 8.76674E-03 7.25991E+03
 -1       118-3.49324E-02 2.19542E-01-2.85953E-03-2.16531E-03 8.59065E-03 7.17577E+03
 -1       119-3.48515E-02-1.97232E-03 1.01441E-02-2.14258E-03 8.41892E-03 7.09160E+03
 -1       120-3.81029E-02 8.75428E-02-1.55875E-03-2.08655E-03 8.35282E-03 7.00736E+03
 -1       121-3.35809E-02 8.12976E-02-9.90972E-03-2.08682E-03 8.24400E-03 6.92307E+03
 -1       122-4.00194E-02-1.64940E-01 1.33588E-02-2.09404E-03 7.99653E-03 6.83872E+03
 -1       123-4.40941E-02 1.63296E-01-1.29282E-02-1.88699E-03 8.00915E-03 6.75431E+03
 -1       124-4.62060E-02 2.62004E-02-4.81032E-03-1.79067E-03 7.96105E-03 6.66993E+03
 -1       125-3.46403E-02-1.24820E-01 1.07905E-02-1.68102E-03 7.61080E-03 6.58551E+03
 -1       126-4.45099E-02 1.37533E-01-1.33609E-02-1.54105E-03 7.68922E-03 6.50100E+03
 -1       127-3.82329E-02 2.91634E-02-4.35850E-03-1.58787E-03 7.24159E-03 6.41644E+03
 -1       128-3.84017E-02-7.71176E-02 1.15549E-02-1.55662E-03 7.11959E-03 6.33183E+03
 -1       129-3.08174E-02 7.26889E-02 3.72528E-03-1.43634E-03 7.04960E-03 6.24718E+03
 -1       130-3.47021E-02 9.11428E-02 6.63031E-03-1.43587E-03 7.01399E-03 6.16250E+03
 -1       131-2.04743E-02-1.75914E-01 1.70983E-02-1.45288E-03 6.67796E-03 6.07777E+03
 -1       132-3.08146E-02 1.62867E-01-8.14946E-03-1.40301E-03 6.59241E-03 5.99295E+03
 -1       133-2.99625E-02 8.21763E-02-2.19933E-02-1.29331E-03 6.40797E-03 5.90812E+03
 -1       134-2.87781E-02-1.11893E-01-2.47512E-03-1.17338E-03 6.08124E-03 5.82324E+03
 -1       135-3.26540E-02 1.36997E-01-3.33870E-03-1.14360E-03 5.73182E-03 5.73828E+03
 -1       136-2.31080E-02-2.14800E-01-1.44922E-02-1.03454E-03 5.56814E-03 5.65329E+03
 -1       137-2.31377E-02 1.73949E-01 1.33222E-02-8.97741E-04 5.13188E-03 5.56822E+03
 -1       138-2.79128E-02-1.34651E-01-9.71493E-03-8.50557E-04 4.88135E-03 5.48314E+03
 -1       139-1.18119E-02 8.22906E-02-1.19299E-03-8.29814E-04 4.65980E-03 5.39800E+03
 -1       140-2.06736E-02-2.96652E-03-6.29748E-03-7.80902E-04 4.40239E-03 5.31276E+03
 -1       141-1.24740E-02 2.59236E-02 3.95712E-03-7.47744E-04 4.00554E-03 5.22745E+03
 -1       142-1.52540E-02 2.87041E-02 1.12063E-02-6.35223E-04 3.71513E-03 5.14211E+03
 -1       143-1.64964E-02 1.49715E-01-6.95789E-04-5.13821E-04 3.64929E-03 5.05676E+03
 -1       144-1.36036E-02 7.37502E-02 3.02915E-02-5.13946E-04 3.25861E-03 4.97135E+03
 -1       145-3.36952E-02-1.30473E-01-2.92050E-02-6.03492E-04 3.11153E-03 4.88583E+03
 -1       146-2.74317E-02-3.73989E-02 1.27602E-03-7.69567E-04 2.89376E-03 4.80023E+03
 -1       147-3.19292E-02 1.04634E-01-1.10065E-02-8.36975E-04 2.62259E-03 4.71460E+03
 -1       148-3.00172E-02-9.54605E-02-1.09271E-02-8.33950E-04 2.35487E-03 4.62891E+03
 -1       149-2.74418E-02 1.17755E-01 1.37442E-02-8.03916E-04 2.07843E-03 4.54317E+03
 -1       150-2.07892E-02-2.11098E-01-4.12428E-03-7.62305E-04 2.01682E-03 4.45740E+03
 -1       151-2.65558E-02 5.99463E-02-7.54984E-03-9.04767E-04 1.74931E-03 4.37157E+03
 -1       152-2.42591E-02 5.89714E-02-9.03157E-03-9.34838E-04 1.63935E-03 4.28564E+03
 -1       153-3.00183E-02 6.69044E-02 2.08360E-02-6.61691E-04 1.35934E-03 4.19966E+03
 -1       154-2.60719E-02 9.81640E-02 8.11172E-03-5.18071E-04 1.34218E-03 4.11362E+03
 -1       155-2.53996E-02-1.40446E-01 1.47801E-02-5.08294E-04 1.09220E-03 4.02748E+03
 -1       156-2.07424E-02 3.99540E-02-7.36395E-03-4.04817E-04 8.93671E-04 3.94130E+03
 -1       157-1.15906E-02 7.58846E-02 2.33415E-02-3.96234E-04 7.50708E-04 3.85512E+03
 -1       158-1.51931E-02-1.91293E-01 1.50549E-02-4.82854E-04 5.74156E-04 3.76887E+03
 -1       159-4.94616E-03 1.43236E-01 7.06367E-03-3.66097E-04 5.96296E-04 3.68255E+03
 -1       160-1.25557E-02-1.93007E-01 1.53064E-02-1.96382E-04 2.74351E-04 3.59618E+03
 -1       161-1.21237E-02 2.01423E-01 8.06976E-04-6.67880E-05 2.32454E-04 3.50975E+03
 -1       162-2.09794E-02-5.65321E-02 4.49289E-03 2.90157E-05-4.74302E-05 3.42329E+03
 -1       163-8.10420E-03 1.46053E-01 3.12659E-02 5.30616E-05-2.34048E-04 3.33677E+03
 -1       164-2.08454E-02 3.74502E-02-1.63188E-02 1.04544E-04-3.45055E-04 3.25018E+03
 -1       165-1.34021E-02-1.55803E-01 9.37246E-03 3.23921E-05-4.12070E-04 3.16350E+03
 -1       166-2.00821E-02 1.19958E-01-1.15787E-02-2.22188E-04-4.60633E-04 3.07671E+03
 -1       167-2.02492E-02 1.42922E-01-3.18905E-03-3.55134E-04-6.72244E-04 2.98990E+03
 -1       168-2.35599E-02-1.24329E-01-1.83232E-02-4.19332E-04-6.32575E-04 2.90304E+03
 -1       169-5.56262E-03 7.46621E-02 4.51717E-02-3.78813E-04-8.85199E-04 2.81610E+03
 -1       170-7.33849E-03-1.54784E-01-1.31276E-02-3.38952E-04-1.09794E-03 2.72911E+03
 -1       171-1.66165E-02 7.78708E-02 7.04934E-03-3.01890E-04-1.13275E-03 2.64201E+03
 -1       172-1.56419E-02-8.32949E-02 1.48630E-03-1.80860E-04-1.19130E-03 2.55486E+03
 -1       173-1.34177E-02-8.59648E-04 3.77082E-02-1.63571E-04-1.22417E-03 2.46770E+03
 -1       174-1.44598E-02-2.14207E-01 1.26872E-04-1.85785E-04-1.31526E-03 2.38053E+03
 -1       175-1.17700E-02 1.56520E-02 1.32842E-02-1.79064E-04-1.23424E-03 2.29325E+03
 -1       176-1.81224E-02-6.99344E-03-2.87026E-02-1.70789E-04-1.43990E-03 2.20584E+03
 -1       177-2.58728E-02-1.27402E-01-4.84433E-02-1.15110E-04-1.53991E-03 2.11844E+03
 -1       178-1.71442E-02-3.50700E-02-7.94635E-03-6.31436E-05-1.36793E-03 2.03100E+03
 -1       179-1.78945E-02 2.15305E-01-9.19723E-03-1.78483E-04-1.41343E-03 1.94342E+03
 -1       180 1.32765E-02-2.71617E-01 1.16994E-02-2.37791E-04-1.31203E-03 1.85581E+03
 -1       181 4.75810E-03 2.53318E-01 1.56980E-02-2.38222E-04-1.39934E-03 1.76816E+03
 -1       182 1.38746E-02-1.42616E-01-1.09983E-02-2.03443E-04-1.34583E-03 1.68043E+03
 -1       183 2.30833E-02 8.36931E-02 3.60412E-02-1.05211E-04-1.32121E-03 1.59258E+03
 -1       184 1.19744E-02-1.23360E-02 8.59064E-03-9.33864E-05-1.16001E-03 1.50471E+03
 -1       185-4.48970E-03 8.82203E-02-4.14791E-03-1.42107E-04-1.21570E-03 1.41685E+03
 -1       186 2.17697E-02 6.34687E-02 7.20320E-03-3.59791E-05-1.19520E-03 1.32887E+03
 -1       187 8.10921E-03-1.68529E-01-1.65187E-02 8.45242E-05-1.09941E-03 1.24083E+03
 -1       188-1.41889E-03 2.43358E-02 6.01895E-03-6.30501E-05-1.12646E-03 1.15262E+03
 -1       189 1.05996E-02-2.09907E-01 9.90275E-03-2.74948E-04-1.04158E-03 1.06431E+03
 -1       190 1.30860E-02 1.54633E-01 1.30481E-02-3.35809E-04-7.15947E-04 9.76030E+02
 -1       191 1.04459E-02-2.55958E-01 2.09923E-02-2.72713E-04-1.18055E-03 8.87623E+02
 -1       192-1.44830E-02-6.31090E-02 1.57044E-03-1.60245E-04 6.39619E-04 7.99102E+02
 -1       193-1.07258E-02-2.16161E-02-5.48569E-03-1.00877E-04-6.06917E-03 7.10576E+02
 -1       194-1.73384E-02-2.84971E-02 1.29231E-02-9.98812E-05 2.01298E-02 6.21988E+02
 -1       195-3.35889E-02 1.84299E-01-3.72889E-02-8.68690E-05-8.05605E-02 5.33281E+02
 -1       196-1.27404E-02-4.70443E-02 2.81401E-02 1.79029E-05 3.08615E-01 4.44504E+02
 -1       197-8.38201E-03 1.41176E-01 4.33015E-03 1.49268E-04-1.19502E+00 3.55740E+02
 -1       198-7.46386E-03-2.23985E-01-5.99441E-03 9.03176E-05 4.61509E+00 2.66925E+02
 -1       199-1.55755E-02 1.00595E-01-2.82792E-02 1.42493E-04-1.78323E+01 1.78001E+02
 -1       200 1.28230E-02 8.11634E-02 3.62366E-02 2.58155E-04 6.88962E+01 8.90351E+01
 -1       201 4.01880E-03-1.83534E-01-9.70237E-04 2.27654E-04-2.66182E+02-5.40829E-02
 -3
    1PSTEP                         3           1           1          
    1PGM                1.000000E+00                                  
    1PGK                5.673844E+00                                  
    1PHID                         -1                                  
    1PSUBC                         0                                  
    1PMODE                         1                                  
  100CL  101 3.79104E-01         201                     2    1MODAL      1
 -4  TOSTRAIN    6    1
 -5  EXX         1    4    1    1
 -5  EYY         1    4    2    2
 -5  EZZ         1    4    3    3
 -5  EXY         1    4    1    2
 -5  EYZ         1    4    2    3
 -5  EZX         1    4    3    1
 -1         1-5.77782E-13 4.02635E-13 7.50700E-14-3.13986E-14 3.10955E-09 1.98509E-07
 -1         2-8.42197E-13 1.28418E-12-1.89625E-13-3.19638E-14-8.04850E-10 1.97549E-07
 -1         3-4.46974E-14-1.37427E-12 6.07629E-13-3.16523E-14 2.08318E-10 1.96589E-07
 -1         4-7.02939E-13 8.19755E-13-4.93619E-14-3.02165E-14-5.39133E-11 1.95630E-07
 -1         5-1.27821E-12 2.73741E-12-6.24922E-13-2.83623E-14 1.39615E-11 1.94670E-07
 -1         6 4.59375E-13-3.05473E-12 1.11162E-12-2.72335E-14-3.60462E-12 1.93710E-07
 -1         7-1.11787E-12 2.20343E-12-4.65219E-13-2.52596E-14 9.45525E-13 1.92750E-07
 -1         8-2.54290E-13-6.75883E-13 4.03264E-13-2.33057E-14-2.30957E-13 1.91790E-07
 -1         9-1.08665E-13-1.16186E-12 5.46431E-13-2.34553E-14 7.33547E-14 1.90830E-07
 -1        10-8.45639E-13 1.29485E-12-1.94441E-13-2.28871E-14-1.14144E-15 1.89869E-07
 -1        11-2.86062E-13-5.70736E-13 3.68511E-13-2.24579E-14 1.97571E-14 1.88909E-07
 -1        12-4.54098E-13-9.23350E-15 1.98001E-13-2.46378E-14 1.70680E-14 1.87949E-07
 -1        13-5.77343E-13 4.01320E-13 7.90551E-14-2.57244E-14 1.93483E-14 1.86989E-07
 -1        14-6.55795E-13 6.61835E-13-1.06404E-15-2.41127E-14 2.10542E-14 1.86028E-07
 -1        15-4.07452E-13-1.64178E-13 2.45915E-13-2.32450E-14 2.18963E-14 1.85068E-07
 -1        16-7.78687E-13 1.07406E-12-1.30450E-13-2.25346E-14 2.17010E-14 1.84107E-07
 -1        17-2.78758E-13-5.93815E-13 3.77397E-13-2.32640E-14 2.50102E-14 1.83147E-07
 -1        18-5.13839E-13 1.89446E-13 1.34726E-13-2.44660E-14 2.63167E-14 1.82186E-07
 -1        19-1.07103E-12 2.04410E-12-4.13846E-13-2.47671E-14 2.72346E-14 1.81225E-07
 -1        20 2.12010E-13-2.22530E-12 8.64054E-13-2.56230E-14 2.88795E-14 1.80265E-07
 -1        21-1.49088E-12 3.44510E-12-8.33932E-13-2.65620E-14 3.09145E-14 1.79304E-07
 -1        22 5.92066E-14-1.72290E-12 7.21938E-13-2.73628E-14 3.14275E-14 1.78342E-07
 -1        23-8.29525E-13 1.24335E-12-1.79446E-13-2.75215E-14 3.30467E-14 1.77381E-07
 -1        24-3.58854E-13-3.28226E-13 3.01753E-13-2.43579E-14 3.63762E-14 1.76420E-07
 -1        25-9.12458E-13 1.51040E-12-2.48228E-13-2.16704E-14 3.54564E-14 1.75458E-07
 -1        26-6.42450E-13 6.23335E-13 6.02537E-15-2.13331E-14 3.99748E-14 1.74497E-07
 -1        27-3.41204E-13-3.91282E-13 3.14596E-13-2.01011E-14 3.96983E-14 1.73535E-07
 -1        28-7.15672E-13 8.69076E-13-6.96466E-14-2.00737E-14 4.09968E-14 1.72573E-07
 -1        29-3.16697E-13-4.77763E-13 3.32882E-13-2.03455E-14 4.13621E-14 1.71611E-07
 -1        30-7.78554E-13 1.08085E-12-1.35324E-13-1.88940E-14 4.38981E-14 1.70649E-07
 -1        31-5.32082E-13 2.57565E-13 1.08817E-13-1.87596E-14 4.51436E-14 1.69687E-07
 -1        32 3.49385E-13-2.68293E-12 1.00434E-12-2.05169E-14 4.72530E-14 1.68724E-07
 -1        33-1.00159E-12 1.81862E-12-3.45277E-13-2.10412E-14 4.95749E-14 1.67761E-07
 -1        34-2.54627E-13-6.78112E-13 3.87847E-13-2.06022E-14 5.10737E-14 1.66799E-07
 -1        35-1.13661E-12 2.26970E-12-4.93292E-13-2.02746E-14 5.26036E-14 1.65836E-07
 -1        36 1.54561E-13-2.05402E-12 8.17140E-13-2.11947E-14 5.26413E-14 1.64872E-07
 -1        37-1.12610E-12 2.21433E-12-4.75521E-13-2.32522E-14 5.39220E-14 1.63909E-07
 -1        38-3.65451E-13-3.14705E-13 2.99693E-13-2.42085E-14 5.79503E-14 1.62945E-07
 -1        39-6.01056E-13 4.40492E-13 6.17200E-14-2.57413E-14 5.68788E-14 1.61981E-07
 -1        40-2.17825E-13-8.30112E-13 4.42371E-13-2.78593E-14 6.00161E-14 1.61017E-07
 -1        41-4.93320E-13 8.47738E-14 1.92753E-13-2.95962E-14 6.16501E-14 1.60053E-07
 -1        42-8.52608E-13 1.29609E-12-2.19421E-13-2.91796E-14 6.32559E-14 1.59089E-07
 -1        43 3.81618E-14-1.70229E-12 7.04727E-13-2.89022E-14 6.35686E-14 1.58124E-07
 -1        44-6.90937E-13 7.39329E-13-2.13019E-14-2.98633E-14 6.31256E-14 1.57159E-07
 -1        45-3.46564E-13-4.05007E-13 3.34951E-13-2.94380E-14 6.77199E-14 1.56194E-07
 -1        46 2.68734E-14-1.67340E-12 7.01543E-13-3.02802E-14 6.67634E-14 1.55229E-07
 -1        47-6.08468E-13 4.54899E-13 5.49141E-14-3.16556E-14 7.06956E-14 1.54263E-07
 -1        48-3.53064E-13-3.82922E-13 3.08867E-13-3.32880E-14 7.09241E-14 1.53298E-07
 -1        49-8.02485E-13 1.09299E-12-1.08378E-13-3.40533E-14 7.26314E-14 1.52331E-07
 -1        50-6.43510E-13 5.89898E-13-1.48381E-14-3.35764E-14 7.37213E-14 1.51365E-07
 -1        51-8.85905E-14-1.29859E-12 6.28065E-13-3.56622E-14 7.45416E-14 1.50399E-07
 -1        52-1.10622E-12 2.08713E-12-3.91921E-13-3.62413E-14 7.79687E-14 1.49432E-07
 -1        53-3.90302E-13-2.61538E-13 2.73985E-13-3.43178E-14 7.65939E-14 1.48465E-07
 -1        54-3.03456E-13-5.51536E-13 3.61288E-13-3.50864E-14 7.99289E-14 1.47497E-07
 -1        55-9.90301E-13 1.72202E-12-2.77735E-13-3.58862E-14 8.09890E-14 1.46530E-07
 -1        56 4.78296E-15-1.56194E-12 6.35232E-13-3.54543E-14 8.01168E-14 1.45562E-07
 -1        57-8.06327E-13 1.15759E-12-1.34688E-13-3.52023E-14 8.30334E-14 1.44593E-07
 -1        58-4.51851E-13-2.40599E-14 2.16725E-13-3.47685E-14 8.30493E-14 1.43625E-07
 -1        59-3.21848E-14-1.44993E-12 6.64362E-13-3.41225E-14 8.63828E-14 1.42656E-07
 -1        60-2.16513E-13-7.69024E-13 4.63160E-13-3.20342E-14 8.79113E-14 1.41687E-07
 -1        61-9.16719E-13 1.54601E-12-2.53130E-13-2.85114E-14 8.91027E-14 1.40718E-07
 -1        62 1.27861E-13-1.91012E-12 7.55684E-13-2.48169E-14 8.90552E-14 1.39748E-07
 -1        63-1.27926E-12 2.77944E-12-6.27422E-13-2.29825E-14 9.09806E-14 1.38778E-07
 -1        64-1.29348E-13-1.04894E-12 5.37535E-13-2.26546E-14 9.11253E-14 1.37807E-07
 -1        65-7.24373E-13 9.11309E-13-6.72159E-14-2.14665E-14 9.13756E-14 1.36837E-07
 -1        66-3.90593E-13-1.72036E-13 2.29729E-13-2.12442E-14 9.46700E-14 1.35866E-07
 -1        67-8.48593E-13 1.29677E-12-1.47838E-13-2.06100E-14 9.53995E-14 1.34894E-07
 -1        68 1.94798E-13-2.16327E-12 8.17763E-13-1.92635E-14 9.66247E-14 1.33923E-07
 -1        69-1.65716E-12 4.03159E-12-1.00751E-12-1.83321E-14 9.91756E-14 1.32951E-07
 -1        70 2.14987E-13-2.21565E-12 8.62680E-13-1.79121E-14 9.98308E-14 1.31978E-07
 -1        71-9.27930E-13 1.63959E-12-3.22089E-13-1.82008E-14 1.00042E-13 1.31006E-07
 -1        72-5.22687E-13 2.44188E-13 9.83722E-14-1.72322E-14 1.00424E-13 1.30033E-07
 -1        73-5.14915E-13 2.05144E-13 1.00040E-13-1.69043E-14 1.03607E-13 1.29059E-07
 -1        74-6.17114E-13 5.70643E-13 1.96931E-14-1.58186E-14 1.04196E-13 1.28085E-07
 -1        75-2.24392E-13-6.98505E-13 4.07841E-13-1.40373E-14 1.04512E-13 1.27111E-07
 -1        76-1.09613E-12 2.23772E-12-4.93402E-13-1.47249E-14 1.05685E-13 1.26136E-07
 -1        77 3.83132E-14-1.51841E-12 6.23224E-13-1.37878E-14 1.05243E-13 1.25161E-07
 -1        78-5.14892E-13 2.95761E-13 1.28959E-13-1.30535E-14 1.07189E-13 1.24186E-07
 -1        79-1.15369E-13-9.59847E-13 4.80205E-13-1.45638E-14 1.06879E-13 1.23210E-07
 -1        80-4.21573E-14-1.15790E-12 4.71832E-13-1.52947E-14 1.07824E-13 1.22234E-07
 -1        81-9.23301E-13 1.67464E-12-3.51580E-13-1.52811E-14 1.08165E-13 1.21257E-07
 -1        82-5.98779E-14-1.07635E-12 5.00748E-13-1.34126E-14 1.10527E-13 1.20280E-07
 -1        83-9.17409E-13 1.66572E-12-2.58908E-13-1.16694E-14 1.07860E-13 1.19303E-07
 -1        84-1.38520E-13-8.33726E-13 3.91962E-13-1.16388E-14 1.10257E-13 1.18325E-07
 -1        85-5.53565E-13 5.63322E-13-5.09759E-15-1.13463E-14 1.10781E-13 1.17347E-07
 -1        86-1.76231E-13-5.94943E-13 3.04354E-13-1.12258E-14 1.10811E-13 1.16368E-07
 -1        87-5.39807E-13 5.33040E-13-1.69781E-14-1.33231E-14 1.11408E-13 1.15389E-07
 -1        88-2.03538E-13-6.16075E-13 4.17406E-13-1.44365E-14 1.10081E-13 1.14409E-07
 -1        89-7.71950E-13 1.39864E-12-2.72779E-13-1.38873E-14 1.13569E-13 1.13429E-07
 -1        90 1.28086E-13-1.67261E-12 6.71064E-13-1.41976E-14 1.13532E-13 1.12449E-07
 -1        91-1.30452E-13-6.78506E-13 3.21535E-13-1.41020E-14 1.12121E-13 1.11468E-07
 -1        92-7.38970E-13 1.23259E-12-1.46967E-13-1.46493E-14 1.13513E-13 1.10487E-07
 -1        93-1.86006E-13-5.74886E-13 3.39976E-13-1.54415E-14 1.11407E-13 1.09505E-07
 -1        94-8.96645E-13 1.79484E-12-3.86959E-13-1.55479E-14 1.14775E-13 1.08523E-07
 -1        95 1.97369E-13-1.94946E-12 8.42898E-13-1.55828E-14 1.13736E-13 1.07540E-07
 -1        96-1.09090E-12 2.31590E-12-5.47043E-13-1.59443E-14 1.14642E-13 1.06557E-07
 -1        97-4.07278E-13 1.45786E-13 5.09666E-14-1.58378E-14 1.13586E-13 1.05574E-07
 -1        98-9.41585E-14-1.01516E-12 4.75001E-13-1.61276E-14 1.13699E-13 1.04589E-07
 -1        99-1.50516E-12 3.61625E-12-9.26077E-13-1.78334E-14 1.12789E-13 1.03605E-07
 -1       100 4.73957E-13-2.99925E-12 1.01435E-12-1.95511E-14 1.11945E-13 1.02620E-07
 -1       101-1.60856E-12 4.09400E-12-1.13950E-12-1.87572E-14 1.12528E-13 1.01634E-07
 -1       102-7.91841E-14-1.17419E-12 5.59070E-13-1.72822E-14 1.11945E-13 1.00648E-07
 -1       103-7.97473E-13 1.35687E-12-2.71970E-13-1.80353E-14 1.13312E-13 9.96619E-08
 -1       104-4.53865E-13 1.10782E-13 1.89824E-13-1.78135E-14 1.10880E-13 9.86752E-08
 -1       105-3.37881E-13-8.35755E-14 1.46382E-13-1.68369E-14 1.11421E-13 9.76879E-08
 -1       106-3.57106E-13-1.60233E-13 2.83258E-13-1.76497E-14 1.12448E-13 9.67000E-08
 -1       107-5.13684E-13 4.69829E-13-9.91205E-16-1.94808E-14 1.10931E-13 9.57118E-08
 -1       108-7.37457E-13 1.34171E-12-2.94761E-13-2.03132E-14 1.10696E-13 9.47231E-08
 -1       109-5.30010E-13 4.71736E-13 1.65039E-13-2.15710E-14 1.09018E-13 9.37340E-08
 -1       110-1.00746E-13-7.50864E-13 4.19322E-13-2.29409E-14 1.09232E-13 9.27442E-08
 -1       111-2.41946E-13-1.34128E-13 1.58463E-13-2.26688E-14 1.08283E-13 9.17536E-08
 -1       112-7.61650E-13 1.43927E-12-2.91816E-13-2.32333E-14 1.06945E-13 9.07627E-08
 -1       113-3.70252E-15-1.16343E-12 5.70595E-13-2.37143E-14 1.06144E-13 8.97711E-08
 -1       114-8.60197E-13 1.94041E-12-4.35523E-13-2.24537E-14 1.04137E-13 8.87788E-08
 -1       115 1.26399E-13-1.36904E-12 5.44050E-13-2.24122E-14 1.05307E-13 8.77862E-08
 -1       116-4.57099E-13 6.31778E-13-4.43587E-14-2.42970E-14 1.03548E-13 8.67930E-08
 -1       117 4.95096E-13-2.47555E-12 8.15459E-13-2.57514E-14 1.03607E-13 8.57989E-08
 -1       118-9.08519E-13 2.09891E-12-5.29477E-13-2.55900E-14 1.01526E-13 8.48045E-08
 -1       119-3.39118E-13 4.94536E-14 1.92648E-13-2.53213E-14 9.94963E-14 8.38098E-08
 -1       120-5.80892E-13 9.04012E-13-1.49007E-13-2.46592E-14 9.87152E-14 8.28142E-08
 -1       121-4.99975E-13 8.57680E-13-2.20225E-13-2.46624E-14 9.74291E-14 8.18181E-08
 -1       122 4.95911E-14-1.42675E-12 6.80425E-13-2.47478E-14 9.45045E-14 8.08212E-08
 -1       123-8.10949E-13 1.64002E-12-4.42625E-13-2.23008E-14 9.46536E-14 7.98237E-08
 -1       124-4.78391E-13 3.77320E-13 1.08306E-14-2.11625E-14 9.40851E-14 7.88265E-08
 -1       125-3.92319E-15-1.06968E-12 5.32986E-13-1.98666E-14 8.99458E-14 7.78287E-08
 -1       126-7.43286E-13 1.40813E-12-3.75161E-13-1.82124E-14 9.08725E-14 7.68300E-08
 -1       127-4.15222E-13 3.81280E-13-1.48878E-14-1.87657E-14 8.55824E-14 7.58306E-08
 -1       128-1.70299E-13-6.27850E-13 4.20097E-13-1.83964E-14 8.41406E-14 7.48308E-08
 -1       129-4.88560E-13 7.34696E-13-8.03290E-14-1.69749E-14 8.33135E-14 7.38304E-08
 -1       130-5.82127E-13 9.05130E-13-9.36536E-14-1.69693E-14 8.28927E-14 7.28295E-08
 -1       131 2.47004E-13-1.59001E-12 6.91043E-13-1.71704E-14 7.89213E-14 7.18282E-08
 -1       132-7.02090E-13 1.58688E-12-4.34229E-13-1.65810E-14 7.79102E-14 7.08258E-08
 -1       133-4.36522E-13 8.88754E-13-3.42340E-13-1.52846E-14 7.57305E-14 6.98232E-08
 -1       134 5.02938E-14-9.31972E-13 3.61147E-13-1.38672E-14 7.18692E-14 6.88201E-08
 -1       135-6.61376E-13 1.34359E-12-3.14923E-13-1.35152E-14 6.77397E-14 6.78161E-08
 -1       136 4.15269E-13-1.85018E-12 5.17093E-13-1.22264E-14 6.58053E-14 6.68116E-08
 -1       137-7.21083E-13 1.60813E-12-2.90194E-13-1.06097E-14 6.06495E-14 6.58062E-08
 -1       138 1.39971E-13-1.12147E-12 3.55037E-13-1.00520E-14 5.76886E-14 6.48007E-08
 -1       139-3.28556E-13 7.83564E-13-2.03060E-13-9.80689E-15 5.50703E-14 6.37945E-08
 -1       140-1.62676E-13 4.65889E-14 7.22328E-15-9.22884E-15 5.20282E-14 6.27871E-08
 -1       141-1.94893E-13 2.58897E-13-7.06791E-16-8.83698E-15 4.73382E-14 6.17790E-08
 -1       142-2.47519E-13 2.71985E-13 6.51936E-14-7.50718E-15 4.39061E-14 6.07704E-08
 -1       143-5.56384E-13 1.40794E-12-3.69649E-13-6.07243E-15 4.31279E-14 5.97618E-08
 -1       144-4.07419E-13 6.24943E-13 1.11341E-13-6.07391E-15 3.85108E-14 5.87524E-08
 -1       145 1.29166E-13-1.01457E-12 1.82232E-13-7.13217E-15 3.67727E-14 5.77417E-08
 -1       146-1.50862E-13-2.68657E-13 1.88411E-13-9.09488E-15 3.41990E-14 5.67300E-08
 -1       147-5.45612E-13 1.06831E-12-2.98344E-13-9.89153E-15 3.09943E-14 5.57180E-08
 -1       148 1.72647E-14-7.56157E-13 2.42875E-13-9.85577E-15 2.78303E-14 5.47052E-08
 -1       149-6.08106E-13 1.10786E-12-1.21361E-13-9.50083E-15 2.45632E-14 5.36920E-08
 -1       150 3.97977E-13-1.85113E-12 5.94926E-13-9.00906E-15 2.38351E-14 5.26784E-08
 -1       151-3.84316E-13 6.37982E-13-1.59700E-13-1.06927E-14 2.06736E-14 5.16640E-08
 -1       152-3.56737E-13 6.26896E-13-1.76775E-13-1.10481E-14 1.93741E-14 5.06485E-08
 -1       153-5.12186E-13 6.33264E-13 8.88199E-14-7.81998E-15 1.60649E-14 4.96324E-08
 -1       154-5.26860E-13 9.41383E-13-1.22872E-13-6.12266E-15 1.58622E-14 4.86155E-08
 -1       155 1.11820E-13-1.24782E-12 5.86671E-13-6.00711E-15 1.29078E-14 4.75975E-08
 -1       156-2.77449E-13 4.39871E-13-1.19340E-13-4.78420E-15 1.05616E-14 4.65790E-08
 -1       157-3.75985E-13 6.57811E-13 3.68486E-14-4.68276E-15 8.87201E-15 4.55605E-08
 -1       158 3.42531E-13-1.73865E-12 7.00007E-13-5.70645E-15 6.78548E-15 4.45412E-08
 -1       159-4.54872E-13 1.29637E-12-3.12938E-13-4.32660E-15 7.04714E-15 4.35210E-08
 -1       160 3.70494E-13-1.76211E-12 6.99774E-13-2.32088E-15 3.24233E-15 4.25003E-08
 -1       161-6.61752E-13 1.86199E-12-5.08936E-13-7.89313E-16 2.74718E-15 4.14789E-08
 -1       162-4.87971E-14-4.68964E-13 2.52239E-13 3.42912E-16-5.60538E-16 4.04571E-08
 -1       163-5.57272E-13 1.26459E-12-9.19892E-14 6.27092E-16-2.76603E-15 3.94346E-08
 -1       164-2.47135E-13 4.41813E-13-1.93638E-13 1.23552E-15-4.07792E-15 3.84112E-08
 -1       165 2.77518E-13-1.40540E-12 5.46672E-13 3.82816E-16-4.86992E-15 3.73869E-08
 -1       166-4.78146E-13 1.17688E-12-3.77651E-13-2.62586E-15-5.44385E-15 3.63611E-08
 -1       167-5.65172E-13 1.36321E-12-3.63552E-13-4.19704E-15-7.94470E-15 3.53352E-08
 -1       168 1.74870E-13-1.01604E-12 2.36758E-13-4.95574E-15-7.47588E-15 3.43086E-08
 -1       169-3.77389E-13 5.70722E-13 2.22198E-13-4.47688E-15-1.04614E-14 3.32812E-08
 -1       170 3.91226E-13-1.35131E-12 3.22810E-13-4.00580E-15-1.29757E-14 3.22531E-08
 -1       171-3.82660E-13 7.34009E-13-1.02972E-13-3.56779E-15-1.33871E-14 3.12238E-08
 -1       172 8.09155E-14-7.18620E-13 2.83340E-13-2.13744E-15-1.40789E-14 3.01938E-08
 -1       173-2.22475E-13-7.40617E-14 3.81740E-13-1.93311E-15-1.44675E-14 2.91637E-08
 -1       174 4.52400E-13-1.90824E-12 6.24789E-13-2.19564E-15-1.55440E-14 2.81336E-08
 -1       175-1.85917E-13 1.38161E-13 1.10178E-13-2.11621E-15-1.45865E-14 2.71021E-08
 -1       176-6.73959E-14 6.41275E-14-1.92435E-13-2.01841E-15-1.70169E-14 2.60691E-08
 -1       177 2.44373E-13-9.55524E-13-2.23707E-14-1.36039E-15-1.81990E-14 2.50362E-08
 -1       178-3.85390E-14-2.50389E-13 7.01628E-14-7.46242E-16-1.61665E-14 2.40027E-08
 -1       179-7.24788E-13 2.03120E-12-6.22003E-13-2.10934E-15-1.67042E-14 2.29677E-08
 -1       180 8.29563E-13-2.53737E-12 8.10925E-13-2.81026E-15-1.55058E-14 2.19323E-08
 -1       181-6.90424E-13 2.24710E-12-5.61134E-13-2.81535E-15-1.65377E-14 2.08964E-08
 -1       182 5.45081E-13-1.30436E-12 2.51129E-13-2.40433E-15-1.59053E-14 1.98596E-08
 -1       183-1.16700E-13 5.99597E-13 3.64391E-14-1.24340E-15-1.56144E-14 1.88214E-08
 -1       184 1.19073E-13-1.68232E-13 7.90829E-14-1.10366E-15-1.37092E-14 1.77830E-08
 -1       185-2.70104E-13 8.25559E-13-2.66064E-13-1.67944E-15-1.43674E-14 1.67446E-08
 -1       186 5.16424E-15 4.97972E-13-1.66985E-13-4.25207E-16-1.41250E-14 1.57048E-08
 -1       187 5.78397E-13-1.50915E-12 2.87339E-13 9.98923E-16-1.29931E-14 1.46643E-08
 -1       188-9.56848E-14 2.08689E-13-7.78292E-15-7.45138E-16-1.33127E-14 1.36219E-08
 -1       189 6.41826E-13-1.96416E-12 6.33591E-13-3.24939E-15-1.23096E-14 1.25782E-08
 -1       190-3.38347E-13 1.33448E-12-3.38796E-13-3.96866E-15-8.46119E-15 1.15349E-08
 -1       191 7.35779E-13-2.41263E-12 8.60419E-13-3.22297E-15-1.39519E-14 1.04901E-08
 -1       192 3.61685E-14-5.38502E-13 2.25891E-13-1.89380E-15 7.55913E-15 9.44394E-09
 -1       193-2.35931E-14-1.52297E-13 3.83353E-14-1.19218E-15-7.17266E-14 8.39772E-09
 -1       194-1.15147E-13-2.47023E-13 2.42489E-13-1.18041E-15 2.37898E-13 7.35077E-09
 -1       195-7.06291E-13 1.86875E-12-7.50018E-13-1.02663E-15-9.52078E-13 6.30241E-09
 -1       196-6.42645E-14-4.69675E-13 4.18868E-13 2.11580E-16 3.64727E-12 5.25323E-09
 -1       197-4.73034E-13 1.29447E-12-3.22800E-13 1.76408E-15-1.41230E-11 4.20420E-09
 -1       198 5.59363E-13-1.99952E-12 5.76729E-13 1.06739E-15 5.45420E-11 3.15456E-09
 -1       199-3.38820E-13 1.03410E-12-4.88955E-13 1.68400E-15-2.10746E-10 2.10364E-09
 -1       200-2.03609E-13 6.04050E-13 7.30966E-14 3.05092E-15 8.14228E-10 1.05223E-09
 -1       201 5.39728E-13-1.67681E-12 4.80767E-13 2.69045E-15-3.14579E-09-6.39162E-13
 -3
    1PSTEP                         4           1           1          
    1PGM                1.000000E+00                                  
    1PGK                5.673844E+00                                  
    1PHID                         -1                                  
    1PSUBC                         0                                  
    1PMODE                         1                                  
  100CL  101 3.79104E-01         201                     2    1MODAL      1
 -4  ERROR       1    1
 -5  STR(%)      1    1    0    0
 -1         1 8.59601E+01
 -1         2 8.63366E+01
 -1         3 8.67106E+01
 -1         4 8.70823E+01
 -1         5 8.74516E+01
 -1         6 8.78185E+01
 -1         7 8.81831E+01
 -1         8 8.85453E+01
 -1         9 8.89052E+01
 -1        10 8.92628E+01
 -1        11 8.96181E+01
 -1        12 8.99710E+01
 -1        13 9.03217E+01
 -1        14 9.06700E+01
 -1        15 9.10161E+01
 -1        16 9.13599E+01
 -1        17 9.17014E+01
 -1        18 9.20407E+01
 -1        19 9.23777E+01
 -1        20 9.27125E+01
 -1        21 9.30450E+01
 -1        22 9.33753E+01
 -1        23 9.37034E+01
 -1        24 9.40293E+01
 -1        25 9.43530E+01
 -1        26 9.46745E+01
 -1        27 9.49938E+01
 -1        28 9.53109E+01
 -1        29 9.56258E+01
 -1        30 9.59386E+01
 -1        31 9.62492E+01
 -1        32 9.65577E+01
 -1        33 9.68640E+01
 -1        34 9.71682E+01
 -1        35 9.74703E+01
 -1        36 9.77702E+01
 -1        37 9.80680E+01
 -1        38 9.83637E+01
 -1        39 9.86574E+01
 -1        40 9.89489E+01
 -1        41 9.92383E+01
 -1        42 9.95256E+01
 -1        43 9.98109E+01
 -1        44 1.00094E+02
 -1        45 1.00375E+02
 -1        46 1.00654E+02
 -1        47 1.00931E+02
 -1        48 1.01206E+02
 -1        49 1.01479E+02
 -1        50 1.01750E+02
 -1        51 1.02019E+02
 -1        52 1.02286E+02
 -1        53 1.02551E+02
 -1        54 1.02813E+02
 -1        55 1.03074E+02
 -1        56 1.03333E+02
 -1        57 1.03590E+02
 -1        58 1.03845E+02
 -1        59 1.04097E+02
 -1        60 1.04348E+02
 -1        61 1.04597E+02
 -1        62 1.04844E+02
 -1        63 1.05089E+02
 -1        64 1.05332E+02
 -1        65 1.05573E+02
 -1        66 1.05812E+02
 -1        67 1.06049E+02
 -1        68 1.06284E+02
 -1        69 1.06518E+02
 -1        70 1.06749E+02
 -1        71 1.06978E+02
 -1        72 1.07206E+02
 -1        73 1.07431E+02
 -1        74 1.07655E+02
 -1        75 1.07877E+02
 -1        76 1.08097E+02
 -1        77 1.08315E+02
 -1        78 1.08531E+02
 -1        79 1.08745E+02
 -1        80 1.08957E+02
 -1        81 1.09168E+02
 -1        82 1.09376E+02
 -1        83 1.09583E+02
 -1        84 1.09787E+02
 -1        85 1.09990E+02
 -1        86 1.10191E+02
 -1        87 1.10391E+02
 -1        88 1.10588E+02
 -1        89 1.10783E+02
 -1        90 1.10977E+02
 -1        91 1.11169E+02
 -1        92 1.11359E+02
 -1        93 1.11547E+02
 -1        94 1.11733E+02
 -1        95 1.11918E+02
 -1        96 1.12100E+02
 -1        97 1.12281E+02
 -1        98 1.12460E+02
 -1        99 1.12637E+02
 -1       100 1.12812E+02
 -1       101 1.12986E+02
 -1       102 1.13158E+02
 -1       103 1.13328E+02
 -1       104 1.13496E+02
 -1       105 1.13662E+02
 -1       106 1.13826E+02
 -1       107 1.13989E+02
 -1       108 1.14150E+02
 -1       109 1.14309E+02
 -1       110 1.14467E+02
 -1       111 1.14622E+02
 -1       112 1.14776E+02
 -1       113 1.14928E+02
 -1       114 1.15078E+02
 -1       115 1.15227E+02
 -1       116 1.15373E+02
 -1       117 1.15518E+02
 -1       118 1.15661E+02
 -1       119 1.15803E+02
 -1       120 1.15942E+02
 -1       121 1.16080E+02
 -1       122 1.16216E+02
 -1       123 1.16351E+02
 -1       124 1.16483E+02
 -1       125 1.16614E+02
 -1       126 1.16743E+02
 -1       127 1.16871E+02
 -1       128 1.16996E+02
 -1       129 1.17120E+02
 -1       130 1.17242E+02
 -1       131 1.17362E+02
 -1       132 1.17481E+02
 -1       133 1.17598E+02
 -1       134 1.17713E+02
 -1       135 1.17827E+02
 -1       136 1.17938E+02
 -1       137 1.18048E+02
 -1       138 1.18156E+02
 -1       139 1.18263E+02
 -1       140 1.18368E+02
 -1       141 1.18471E+02
 -1       142 1.18572E+02
 -1       143 1.18672E+02
 -1       144 1.18769E+02
 -1       145 1.18866E+02
 -1       146 1.18960E+02
 -1       147 1.19053E+02
 -1       148 1.19144E+02
 -1       149 1.19233E+02
 -1       150 1.19320E+02
 -1       151 1.19406E+02
 -1       152 1.19490E+02
 -1       153 1.19573E+02
 -1       154 1.19653E+02
 -1       155 1.19732E+02
 -1       156 1.19809E+02
 -1       157 1.19885E+02
 -1       158 1.19959E+02
 -1       159 1.20031E+02
 -1       160 1.20101E+02
 -1       161 1.20170E+02
 -1       162 1.20237E+02
 -1       163 1.20302E+02
 -1       164 1.20366E+02
 -1       165 1.20427E+02
 -1       166 1.20488E+02
 -1       167 1.20546E+02
 -1       168 1.20603E+02
 -1       169 1.20658E+02
 -1       170 1.20711E+02
 -1       171 1.20762E+02
 -1       172 1.20812E+02
 -1       173 1.20860E+02
 -1       174 1.20907E+02
 -1       175 1.20952E+02
 -1       176 1.20995E+02
 -1       177 1.21036E+02
 -1       178 1.21075E+02
 -1       179 1.21113E+02
 -1       180 1.21149E+02
 -1       181 1.21184E+02
 -1       182 1.21217E+02
 -1       183 1.21248E+02
 -1       184 1.21277E+02
 -1       185 1.21305E+02
 -1       186 1.21330E+02
 -1       187 1.21355E+02
 -1       188 1.21377E+02
 -1       189 1.21398E+02
 -1       190 1.21417E+02
 -1       191 1.21434E+02
 -1       192 1.21449E+02
 -1       193 1.21463E+02
 -1       194 1.21475E+02
 -1       195 1.21486E+02
 -1       196 1.21494E+02
 -1       197 1.21501E+02
 -1       198 1.21507E+02
 -1       199 1.21510E+02
 -1       200 1.21512E+02
 -1       201 1.21512E+02
 -3
    1PSTEP                         5           1           1          
    1PGM                1.000000E+00                                  
    1PGK                5.787577E+01                                  
    1PHID                         -1                                  
    1PSUBC                         0                                  
    1PMODE                         2                                  
  100CL  102 1.210789116         201                     2    2MODAL      1
 -4  DISP        4    1
 -5  D1          1    2    1    0
 -5  D2          1    2    2    0
 -5  D3          1    2    3    0
 -5  ALL         1    2    0    0    1ALL
 -1         1 0.00000E+00 0.00000E+00-8.07794E-28
 -1         2-5.84493E-15 7.38409E-17-1.26815E-10
 -1         3-1.16702E-14 1.14273E-16-5.40072E-10
 -1         4-1.74885E-14 1.20307E-16-1.30295E-09
 -1         5-2.33382E-14 9.20030E-17-2.47856E-09
 -1         6-2.91473E-14 3.01467E-17-4.13003E-09
 -1         7-3.50179E-14-6.61313E-17-6.32057E-09
 -1         8-4.08903E-14-1.96593E-16-9.11336E-09
 -1         9-4.67590E-14-3.61439E-16-1.25714E-08
 -1        10-5.26789E-14-5.60587E-16-1.67576E-08
 -1        11-5.85518E-14-7.94639E-16-2.17347E-08
 -1        12-6.43464E-14-1.06110E-15-2.75657E-08
 -1        13-7.00474E-14-1.36286E-15-3.43140E-08
 -1        14-7.55965E-14-1.69676E-15-4.20429E-08
 -1        15-8.11033E-14-2.06476E-15-5.08152E-08
 -1        16-8.65584E-14-2.46617E-15-6.06934E-08
 -1        17-9.21070E-14-2.90040E-15-7.17393E-08
 -1        18-9.75183E-14-3.36793E-15-8.40146E-08
 -1        19-1.02658E-13-3.86933E-15-9.75804E-08
 -1        20-1.07704E-13-4.40524E-15-1.12498E-07
 -1        21-1.12416E-13-4.97548E-15-1.28827E-07
 -1        22-1.17231E-13-5.58089E-15-1.46630E-07
 -1        23-1.22075E-13-6.21756E-15-1.65965E-07
 -1        24-1.26855E-13-6.88859E-15-1.86892E-07
 -1        25-1.31424E-13-7.59295E-15-2.09471E-07
 -1        26-1.35963E-13-8.33135E-15-2.33758E-07
 -1        27-1.40697E-13-9.10330E-15-2.59812E-07
 -1        28-1.45282E-13-9.91165E-15-2.87690E-07
 -1        29-1.49682E-13-1.07566E-14-3.17449E-07
 -1        30-1.54242E-13-1.16401E-14-3.49146E-07
 -1        31-1.58733E-13-1.25616E-14-3.82839E-07
 -1        32-1.63333E-13-1.35237E-14-4.18585E-07
 -1        33-1.67857E-13-1.45260E-14-4.56441E-07
 -1        34-1.72218E-13-1.55713E-14-4.96464E-07
 -1        35-1.76312E-13-1.66597E-14-5.38711E-07
 -1        36-1.81093E-13-1.77902E-14-5.83240E-07
 -1        37-1.85147E-13-1.89610E-14-6.30103E-07
 -1        38-1.89650E-13-2.01741E-14-6.79357E-07
 -1        39-1.94409E-13-2.14308E-14-7.31055E-07
 -1        40-1.98928E-13-2.27276E-14-7.85254E-07
 -1        41-2.03555E-13-2.40623E-14-8.42009E-07
 -1        42-2.07332E-13-2.54367E-14-9.01372E-07
 -1        43-2.11858E-13-2.68503E-14-9.63394E-07
 -1        44-2.16209E-13-2.83039E-14-1.02813E-06
 -1        45-2.20765E-13-2.97962E-14-1.09562E-06
 -1        46-2.24678E-13-3.13272E-14-1.16594E-06
 -1        47-2.28106E-13-3.28976E-14-1.23911E-06
 -1        48-2.31758E-13-3.45109E-14-1.31521E-06
 -1        49-2.35622E-13-3.61649E-14-1.39428E-06
 -1        50-2.38396E-13-3.78599E-14-1.47636E-06
 -1        51-2.41128E-13-3.95940E-14-1.56152E-06
 -1        52-2.42775E-13-4.13692E-14-1.64980E-06
 -1        53-2.44414E-13-4.31879E-14-1.74125E-06
 -1        54-2.45299E-13-4.50504E-14-1.83591E-06
 -1        55-2.45242E-13-4.69531E-14-1.93382E-06
 -1        56-2.45080E-13-4.88955E-14-2.03505E-06
 -1        57-2.45096E-13-5.08828E-14-2.13962E-06
 -1        58-2.44523E-13-5.29147E-14-2.24760E-06
 -1        59-2.43072E-13-5.49918E-14-2.35901E-06
 -1        60-2.40928E-13-5.71148E-14-2.47391E-06
 -1        61-2.38389E-13-5.92881E-14-2.59234E-06
 -1        62-2.35062E-13-6.15140E-14-2.71434E-06
 -1        63-2.30658E-13-6.37929E-14-2.83996E-06
 -1        64-2.26605E-13-6.61249E-14-2.96924E-06
 -1        65-2.21938E-13-6.85105E-14-3.10222E-06
 -1        66-2.16531E-13-7.09488E-14-3.23894E-06
 -1        67-2.10884E-13-7.34389E-14-3.37944E-06
 -1        68-2.04845E-13-7.59742E-14-3.52376E-06
 -1        69-1.98395E-13-7.85553E-14-3.67193E-06
 -1        70-1.92660E-13-8.11769E-14-3.82401E-06
 -1        71-1.86626E-13-8.38415E-14-3.98003E-06
 -1        72-1.80845E-13-8.65481E-14-4.14001E-06
 -1        73-1.74024E-13-8.93019E-14-4.30400E-06
 -1        74-1.67554E-13-9.20960E-14-4.47202E-06
 -1        75-1.60943E-13-9.49323E-14-4.64412E-06
 -1        76-1.54525E-13-9.78146E-14-4.82031E-06
 -1        77-1.47592E-13-1.00749E-13-5.00063E-06
 -1        78-1.40008E-13-1.03737E-13-5.18510E-06
 -1        79-1.34069E-13-1.06782E-13-5.37374E-06
 -1        80-1.28014E-13-1.09880E-13-5.56655E-06
 -1        81-1.20623E-13-1.13028E-13-5.76357E-06
 -1        82-1.13559E-13-1.16229E-13-5.96480E-06
 -1        83-1.07053E-13-1.19483E-13-6.17026E-06
 -1        84-9.98120E-14-1.22790E-13-6.37995E-06
 -1        85-9.31117E-14-1.26148E-13-6.59390E-06
 -1        86-8.80483E-14-1.29556E-13-6.81210E-06
 -1        87-8.29748E-14-1.33019E-13-7.03456E-06
 -1        88-7.71256E-14-1.36532E-13-7.26130E-06
 -1        89-7.06692E-14-1.40091E-13-7.49231E-06
 -1        90-6.37637E-14-1.43702E-13-7.72760E-06
 -1        91-5.60484E-14-1.47365E-13-7.96719E-06
 -1        92-4.82184E-14-1.51080E-13-8.21108E-06
 -1        93-4.18421E-14-1.54846E-13-8.45926E-06
 -1        94-3.46211E-14-1.58661E-13-8.71174E-06
 -1        95-2.62086E-14-1.62524E-13-8.96853E-06
 -1        96-1.79289E-14-1.66426E-13-9.22961E-06
 -1        97-9.61167E-15-1.70368E-13-9.49500E-06
 -1        98-1.86092E-15-1.74345E-13-9.76467E-06
 -1        99 7.25418E-15-1.78348E-13-1.00386E-05
 -1       100 1.61094E-14-1.82368E-13-1.03169E-05
 -1       101 2.47248E-14-1.86410E-13-1.05994E-05
 -1       102 3.22302E-14-1.90481E-13-1.08861E-05
 -1       103 3.95916E-14-1.94582E-13-1.11771E-05
 -1       104 4.59388E-14-1.98706E-13-1.14723E-05
 -1       105 5.20034E-14-2.02856E-13-1.17717E-05
 -1       106 5.86515E-14-2.07032E-13-1.20754E-05
 -1       107 6.52054E-14-2.11231E-13-1.23832E-05
 -1       108 7.17258E-14-2.15455E-13-1.26951E-05
 -1       109 7.74511E-14-2.19701E-13-1.30112E-05
 -1       110 8.18677E-14-2.23976E-13-1.33315E-05
 -1       111 8.70298E-14-2.28283E-13-1.36558E-05
 -1       112 9.27663E-14-2.32620E-13-1.39842E-05
 -1       113 9.97580E-14-2.36989E-13-1.43166E-05
 -1       114 1.06493E-13-2.41393E-13-1.46530E-05
 -1       115 1.13666E-13-2.45837E-13-1.49934E-05
 -1       116 1.20750E-13-2.50314E-13-1.53378E-05
 -1       117 1.28409E-13-2.54824E-13-1.56860E-05
 -1       118 1.36406E-13-2.59371E-13-1.60381E-05
 -1       119 1.43540E-13-2.63946E-13-1.63940E-05
 -1       120 1.51001E-13-2.68540E-13-1.67537E-05
 -1       121 1.56467E-13-2.73157E-13-1.71172E-05
 -1       122 1.61921E-13-2.77796E-13-1.74843E-05
 -1       123 1.67815E-13-2.82455E-13-1.78551E-05
 -1       124 1.72750E-13-2.87132E-13-1.82295E-05
 -1       125 1.78523E-13-2.91823E-13-1.86074E-05
 -1       126 1.83881E-13-2.96525E-13-1.89888E-05
 -1       127 1.89162E-13-3.01249E-13-1.93738E-05
 -1       128 1.92863E-13-3.05990E-13-1.97621E-05
 -1       129 1.96553E-13-3.10737E-13-2.01538E-05
 -1       130 2.00479E-13-3.15503E-13-2.05487E-05
 -1       131 2.04131E-13-3.20287E-13-2.09470E-05
 -1       132 2.07600E-13-3.25081E-13-2.13484E-05
 -1       133 2.12646E-13-3.29894E-13-2.17529E-05
 -1       134 2.20341E-13-3.34732E-13-2.21604E-05
 -1       135 2.30000E-13-3.39586E-13-2.25709E-05
 -1       136 2.37745E-13-3.44451E-13-2.29843E-05
 -1       137 2.43374E-13-3.49324E-13-2.34005E-05
 -1       138 2.48128E-13-3.54203E-13-2.38193E-05
 -1       139 2.54999E-13-3.59090E-13-2.42408E-05
 -1       140 2.61537E-13-3.63998E-13-2.46647E-05
 -1       141 2.68298E-13-3.68915E-13-2.50911E-05
 -1       142 2.74560E-13-3.73850E-13-2.55198E-05
 -1       143 2.79990E-13-3.78789E-13-2.59507E-05
 -1       144 2.88555E-13-3.83735E-13-2.63838E-05
 -1       145 2.96689E-13-3.88663E-13-2.68189E-05
 -1       146 3.05113E-13-3.93570E-13-2.72561E-05
 -1       147 3.12377E-13-3.98450E-13-2.76952E-05
 -1       148 3.18937E-13-4.03306E-13-2.81362E-05
 -1       149 3.26396E-13-4.08133E-13-2.85789E-05
 -1       150 3.34490E-13-4.12923E-13-2.90233E-05
 -1       151 3.44557E-13-4.17678E-13-2.94694E-05
 -1       152 3.53268E-13-4.22400E-13-2.99170E-05
 -1       153 3.60408E-13-4.27088E-13-3.03662E-05
 -1       154 3.66981E-13-4.31751E-13-3.08168E-05
 -1       155 3.72273E-13-4.36386E-13-3.12687E-05
 -1       156 3.77408E-13-4.40994E-13-3.17220E-05
 -1       157 3.83289E-13-4.45591E-13-3.21766E-05
 -1       158 3.89881E-13-4.50175E-13-3.26324E-05
 -1       159 3.95416E-13-4.54748E-13-3.30893E-05
 -1       160 4.01219E-13-4.59324E-13-3.35474E-05
 -1       161 4.06574E-13-4.63889E-13-3.40065E-05
 -1       162 4.11718E-13-4.68446E-13-3.44665E-05
 -1       163 4.18159E-13-4.72970E-13-3.49275E-05
 -1       164 4.25618E-13-4.77469E-13-3.53893E-05
 -1       165 4.32117E-13-4.81942E-13-3.58520E-05
 -1       166 4.38574E-13-4.86416E-13-3.63154E-05
 -1       167 4.46169E-13-4.90878E-13-3.67795E-05
 -1       168 4.53610E-13-4.95328E-13-3.72442E-05
 -1       169 4.59132E-13-4.99764E-13-3.77096E-05
 -1       170 4.63259E-13-5.04203E-13-3.81755E-05
 -1       171 4.68708E-13-5.08649E-13-3.86419E-05
 -1       172 4.74209E-13-5.13080E-13-3.91088E-05
 -1       173 4.80745E-13-5.17500E-13-3.95761E-05
 -1       174 4.87005E-13-5.21917E-13-4.00437E-05
 -1       175 4.92015E-13-5.26322E-13-4.05117E-05
 -1       176 4.96309E-13-5.30732E-13-4.09800E-05
 -1       177 5.02000E-13-5.35148E-13-4.14485E-05
 -1       178 5.04846E-13-5.39575E-13-4.19173E-05
 -1       179 5.09368E-13-5.44019E-13-4.23863E-05
 -1       180 5.12854E-13-5.48500E-13-4.28555E-05
 -1       181 5.14422E-13-5.53034E-13-4.33249E-05
 -1       182 5.20516E-13-5.57630E-13-4.37944E-05
 -1       183 5.26540E-13-5.62299E-13-4.42640E-05
 -1       184 5.35765E-13-5.67025E-13-4.47337E-05
 -1       185 5.46362E-13-5.71796E-13-4.52035E-05
 -1       186 5.53671E-13-5.76617E-13-4.56734E-05
 -1       187 5.58972E-13-5.81487E-13-4.61433E-05
 -1       188 5.62296E-13-5.86399E-13-4.66133E-05
 -1       189 5.65236E-13-5.91363E-13-4.70832E-05
 -1       190 5.68941E-13-5.96371E-13-4.75532E-05
 -1       191 5.71698E-13-6.01407E-13-4.80233E-05
 -1       192 5.77187E-13-6.06483E-13-4.84933E-05
 -1       193 5.81586E-13-6.11569E-13-4.89633E-05
 -1       194 5.84625E-13-6.16666E-13-4.94332E-05
 -1       195 5.88339E-13-6.21748E-13-4.99032E-05
 -1       196 5.92852E-13-6.26820E-13-5.03731E-05
 -1       197 5.96208E-13-6.31866E-13-5.08429E-05
 -1       198 5.98995E-13-6.36887E-13-5.13126E-05
 -1       199 5.99955E-13-6.41892E-13-5.17823E-05
 -1       200 5.99811E-13-6.46879E-13-5.22518E-05
 -1       201 5.99034E-13-6.51856E-13-5.27213E-05
 -3
    1PSTEP                         6           1           1          
    1PGM                1.000000E+00                                  
    1PGK                5.787577E+01                                  
    1PHID                         -1                                  
    1PSUBC                         0                                  
    1PMODE                         2                                  
  100CL  102 1.210789116         201                     2    2MODAL      1
 -4  STRESS      6    1
 -5  SXX         1    4    1    1
 -5  SYY         1    4    2    2
 -5  SZZ         1    4    3    3
 -5  SXY         1    4    1    2
 -5  SYZ         1    4    2    3
 -5  SZX         1    4    3    1
 -1         1-6.43644E-01-1.98748E-03 4.77583E-04 3.84429E-03-4.86269E+07 2.54815E+01
 -1         2-6.42428E-01 2.22247E-03-1.09404E-03 3.85739E-03 1.25862E+07 2.54686E+01
 -1         3-6.42875E-01-6.39587E-03-9.26341E-03 3.86165E-03-3.25759E+06 2.54428E+01
 -1         4-6.45559E-01 4.72227E-03-8.15114E-03 3.84514E-03 8.43186E+05 2.54135E+01
 -1         5-6.38840E-01 5.10702E-03 3.57830E-03 3.84629E-03-2.18180E+05 2.54497E+01
 -1         6-6.30320E-01 1.18535E-02 1.84812E-02 3.85135E-03 5.65425E+04 2.54841E+01
 -1         7-6.57086E-01-1.32609E-02-1.72711E-02 3.85500E-03-1.45474E+04 2.54298E+01
 -1         8-6.50107E-01 5.00268E-04-3.22627E-03 3.86368E-03 3.86737E+03 2.53482E+01
 -1         9-6.14905E-01 2.39817E-02 5.29540E-02 3.86095E-03-8.83869E+02 2.52814E+01
 -1        10-6.41151E-01 2.34609E-02 2.98687E-02 3.83849E-03 3.60792E+02 2.53056E+01
 -1        11-6.38229E-01-2.52309E-02 3.18261E-03 3.84729E-03 5.35486E+01 2.54716E+01
 -1        12-6.53881E-01-2.13301E-03-1.28123E-02 3.83562E-03 1.47954E+02 2.55854E+01
 -1        13-6.58885E-01-2.76972E-02-1.19033E-01 3.82522E-03 1.38378E+02 2.54322E+01
 -1        14-5.82777E-01 7.58382E-03 4.62747E-02 3.85077E-03 1.55689E+02 2.52023E+01
 -1        15-6.04602E-01-6.79994E-03 3.50026E-02 3.85214E-03 1.66012E+02 2.50232E+01
 -1        16-5.44836E-01 7.60063E-02 1.01046E-01 3.86529E-03 1.78113E+02 2.48903E+01
 -1        17-6.14069E-01-2.86147E-02-1.46616E-02 3.86991E-03 1.89722E+02 2.47443E+01
 -1        18-5.53991E-01 4.33594E-02 5.73320E-02 3.85424E-03 2.01421E+02 2.45585E+01
 -1        19-6.08962E-01-4.60336E-02-1.31558E-01 3.83091E-03 2.13060E+02 2.45150E+01
 -1        20-5.76768E-01-2.56249E-02-1.07668E-01 3.82952E-03 2.24674E+02 2.44187E+01
 -1        21-5.79946E-01-5.85904E-02-1.34423E-01 3.82404E-03 2.36252E+02 2.43082E+01
 -1        22-4.26059E-01 1.35109E-01 2.64794E-01 3.85576E-03 2.47795E+02 2.41569E+01
 -1        23-5.17226E-01 5.06786E-03 4.39720E-02 3.86971E-03 2.59300E+02 2.37782E+01
 -1        24-5.39743E-01-5.80222E-02-7.79003E-02 3.83958E-03 2.70767E+02 2.34157E+01
 -1        25-5.37314E-01-3.88287E-02-1.08328E-01 3.83781E-03 2.82192E+02 2.32195E+01
 -1        26-5.36217E-01-3.44501E-02 4.08016E-02 3.84732E-03 2.93574E+02 2.32052E+01
 -1        27-5.10643E-01 5.65186E-02-9.24545E-02 3.85232E-03 3.04912E+02 2.31363E+01
 -1        28-5.46860E-01-1.59039E-01-1.08144E-01 3.86740E-03 3.16203E+02 2.29524E+01
 -1        29-5.91865E-01-1.10244E-02-2.11279E-01 3.88573E-03 3.27446E+02 2.30250E+01
 -1        30-3.87046E-01 7.68785E-02 2.21329E-01 3.90068E-03 3.38639E+02 2.30896E+01
 -1        31-5.05339E-01 3.33122E-02 4.59373E-02 3.91711E-03 3.49780E+02 2.29444E+01
 -1        32-4.00705E-01 1.41564E-01 1.64713E-01 3.94195E-03 3.60868E+02 2.31496E+01
 -1        33-4.92984E-01-5.35804E-02 7.76511E-03 3.94309E-03 3.71901E+02 2.31884E+01
 -1        34-5.18089E-01-7.18312E-03-1.95405E-01 3.88567E-03 3.82876E+02 2.28427E+01
 -1        35-5.40471E-01-1.26023E-01-8.62026E-02 3.84760E-03 3.93793E+02 2.23122E+01
 -1        36-4.59681E-01 1.39788E-01 1.62082E-01 3.85836E-03 4.04648E+02 2.18428E+01
 -1        37-5.50156E-01-2.28818E-01-2.85838E-01 3.85082E-03 4.15442E+02 2.19453E+01
 -1        38-3.91914E-01 2.91413E-01 2.72411E-01 3.78020E-03 4.26171E+02 2.24610E+01
 -1        39-5.44303E-01-1.03258E-01-2.94548E-02 3.75131E-03 4.36835E+02 2.24620E+01
 -1        40-4.08154E-01 1.30282E-01 1.67060E-01 3.81139E-03 4.47430E+02 2.15858E+01
 -1        41-4.59565E-01-4.45614E-02 7.33439E-02 3.84201E-03 4.57957E+02 2.07708E+01
 -1        42-3.10442E-01 1.81748E-01 1.90267E-01 3.82476E-03 4.68411E+02 2.06852E+01
 -1        43-3.18118E-01 1.86912E-01 4.69295E-01 3.79696E-03 4.78793E+02 2.09724E+01
 -1        44-5.34302E-01-4.47678E-02-5.36571E-02 3.78495E-03 4.89099E+02 2.09517E+01
 -1        45-6.71670E-01-2.02672E-01-5.85504E-01 3.81038E-03 4.99329E+02 2.08377E+01
 -1        46-4.73800E-01-1.83049E-01-8.27797E-02 3.82957E-03 5.09480E+02 2.07878E+01
 -1        47-3.79410E-01 8.38710E-03 1.30838E-01 3.81063E-03 5.19552E+02 2.05381E+01
 -1        48-3.25925E-01 9.95952E-02 1.31594E-01 3.82094E-03 5.29541E+02 2.04835E+01
 -1        49-5.12680E-01-1.34293E-01-3.74911E-01 3.86603E-03 5.39446E+02 2.07123E+01
 -1        50-4.18665E-01-5.88989E-02-2.27985E-01 3.92038E-03 5.49266E+02 2.04444E+01
 -1        51-2.59339E-01 9.62101E-04-3.35920E-02 3.97581E-03 5.58998E+02 1.93534E+01
 -1        52-9.28790E-02 6.75125E-02 1.11927E-01 3.94697E-03 5.68641E+02 1.84839E+01
 -1        53-2.87172E-01-1.33142E-01-2.44276E-01 3.86597E-03 5.78194E+02 1.83634E+01
 -1        54 1.16541E-01 1.64059E-01 3.27823E-01 3.84971E-03 5.87653E+02 1.84971E+01
 -1        55-7.52994E-03-4.64876E-02-1.41860E-01 3.91993E-03 5.97018E+02 1.83982E+01
 -1        56-5.19546E-04 5.49301E-03 5.32209E-02 3.95161E-03 6.06287E+02 1.80921E+01
 -1        57 1.25130E-01 1.34401E-01 1.68626E-01 3.96037E-03 6.15458E+02 1.83409E+01
 -1        58 2.68276E-01 1.39816E-01 2.67923E-01 3.99642E-03 6.24529E+02 1.85878E+01
 -1        59 1.08155E-01-1.25212E-01-4.02990E-03 4.03713E-03 6.33499E+02 1.79361E+01
 -1        60 1.46265E-01-1.43657E-01-3.10912E-01 4.04467E-03 6.42365E+02 1.76044E+01
 -1        61 4.69588E-01 1.73267E-01 3.24860E-01 3.98184E-03 6.51126E+02 1.73023E+01
 -1        62 2.75696E-01-9.77006E-02-2.95106E-01 3.93973E-03 6.59779E+02 1.65851E+01
 -1        63 5.79881E-01 6.63962E-02 4.23506E-02 3.93477E-03 6.68323E+02 1.66510E+01
 -1        64 5.19456E-01 1.06654E-01 2.90389E-01 3.91668E-03 6.76758E+02 1.64340E+01
 -1        65 4.85250E-01-1.33142E-01-2.57011E-01 3.91838E-03 6.85080E+02 1.61127E+01
 -1        66 6.19368E-01 5.43438E-02 1.76611E-02 3.90799E-03 6.93288E+02 1.65763E+01
 -1        67 4.21038E-01-1.37865E-01-5.08962E-01 3.94547E-03 7.01380E+02 1.63061E+01
 -1        68 8.86135E-01 7.44051E-02 5.51277E-01 4.01223E-03 7.09355E+02 1.59575E+01
 -1        69 6.27172E-01 4.41541E-02-2.03281E-01 4.09234E-03 7.17210E+02 1.51277E+01
 -1        70 6.36411E-01-9.19105E-02 6.81704E-02 4.21877E-03 7.24944E+02 1.38748E+01
 -1        71 6.18404E-01 1.37789E-01-2.07571E-01 4.36670E-03 7.32555E+02 1.35680E+01
 -1        72 6.56494E-01-1.91927E-01-8.41031E-02 4.40975E-03 7.40040E+02 1.36415E+01
 -1        73 6.21441E-01-9.36042E-02-1.73095E-01 4.37036E-03 7.47399E+02 1.37411E+01
 -1        74 7.00378E-01 1.25494E-01-1.63900E-01 4.39963E-03 7.54629E+02 1.26559E+01
 -1        75 5.05468E-01-4.00083E-01-3.45553E-01 4.49289E-03 7.61729E+02 1.09661E+01
 -1        76 7.09797E-01 1.91456E-01-8.87723E-02 4.55821E-03 7.68696E+02 9.48528E+00
 -1        77 9.99594E-01-1.02642E-02 4.03576E-01 4.49523E-03 7.75530E+02 8.41128E+00
 -1        78 7.19752E-01 4.73840E-03-9.25589E-04 4.38361E-03 7.82228E+02 7.42965E+00
 -1        79 5.56139E-01-3.05913E-02-2.23862E-01 4.32402E-03 7.88789E+02 6.37901E+00
 -1        80 9.28706E-01 7.92996E-02 5.74885E-01 4.38489E-03 7.95210E+02 5.57060E+00
 -1        81 1.03371E+00 2.71402E-01 5.80279E-01 4.45244E-03 8.01490E+02 5.44094E+00
 -1        82 5.90589E-01-3.29721E-01-3.55302E-01 4.50513E-03 8.07628E+02 5.29701E+00
 -1        83 8.78602E-01 1.62860E-01 2.88196E-01 4.54010E-03 8.13621E+02 4.48574E+00
 -1        84 2.26157E-01-6.70712E-01-1.14218E+00 4.53499E-03 8.19467E+02 3.56972E+00
 -1        85 8.69660E-01 1.52278E-01 5.42759E-01 4.55742E-03 8.25165E+02 3.03552E+00
 -1        86 5.00260E-01-3.13099E-02-1.76955E-01 4.53258E-03 8.30713E+02 2.86162E+00
 -1        87 5.89645E-01-4.38530E-02-3.86176E-02 4.51112E-03 8.36110E+02 2.54121E+00
 -1        88 6.81151E-01 5.24563E-02 1.74053E-01 4.60617E-03 8.41352E+02 2.68104E+00
 -1        89 9.50653E-01 1.08811E-01 4.16107E-01 4.62659E-03 8.46439E+02 2.96004E+00
 -1        90 1.11797E+00 3.75406E-01 6.51998E-01 4.55877E-03 8.51369E+02 2.34993E+00
 -1        91 7.39776E-01-1.35934E-01-1.61089E-01 4.51918E-03 8.56140E+02 1.66901E+00
 -1        92 5.10340E-01-2.76140E-01-6.05700E-01 4.50172E-03 8.60750E+02 1.02686E+00
 -1        93 6.82938E-01 1.05605E-01-1.46945E-01 4.54447E-03 8.65197E+02 4.19150E-01
 -1        94 1.33519E+00 2.68492E-01 1.15722E+00 4.53436E-03 8.69479E+02-2.49823E-01
 -1        95 1.00728E+00 1.77522E-01 1.33902E-01 4.55891E-03 8.73595E+02-1.32700E+00
 -1        96 1.12669E+00 1.00277E-01 6.22889E-01 4.60465E-03 8.77544E+02-1.04562E+00
 -1        97 1.02987E+00 2.40800E-01 3.47607E-01 4.49899E-03 8.81322E+02-1.67919E+00
 -1        98 9.71323E-01-3.80229E-02-2.83212E-02 4.39438E-03 8.84929E+02-4.11791E+00
 -1        99 9.82680E-01 4.53017E-02 1.29517E-01 4.42900E-03 8.88363E+02-5.24016E+00
 -1       100 1.50596E+00 4.27757E-01 1.09413E+00 4.47023E-03 8.91622E+02-5.12624E+00
 -1       101 5.17885E-01-2.21059E-01-6.91365E-01 4.41699E-03 8.94704E+02-4.94307E+00
 -1       102 8.89970E-01-1.46955E-01-3.07001E-02 4.35282E-03 8.97608E+02-4.98073E+00
 -1       103 7.73792E-01 1.47944E-01 3.90834E-01 4.28759E-03 9.00331E+02-5.14986E+00
 -1       104 6.42564E-01-8.01246E-02-2.62897E-01 4.18741E-03 9.02871E+02-5.62098E+00
 -1       105 7.41807E-01-6.30138E-02 2.21552E-01 4.04163E-03 9.05228E+02-5.92484E+00
 -1       106 4.57215E-01-2.92920E-01-6.77408E-01 3.94495E-03 9.07398E+02-6.50732E+00
 -1       107 5.66296E-01-1.12742E-01-2.07737E-01 3.81748E-03 9.09381E+02-7.94385E+00
 -1       108 9.83178E-01 1.84187E-01 8.31578E-01 3.71724E-03 9.11174E+02-8.78295E+00
 -1       109 7.75176E-01 2.13130E-01 2.82020E-01 3.66642E-03 9.12777E+02-9.60882E+00
 -1       110 4.85590E-01 1.35601E-01-5.40551E-02 3.53467E-03 9.14187E+02-1.04430E+01
 -1       111 6.83572E-01-6.73087E-02 2.29580E-01 3.45683E-03 9.15402E+02-1.10888E+01
 -1       112 9.50627E-01 5.54403E-01 6.34434E-01 3.41588E-03 9.16420E+02-1.26973E+01
 -1       113 8.94864E-01-1.76598E-02 1.76409E-01 3.32014E-03 9.17240E+02-1.42165E+01
 -1       114 9.18548E-01 2.66052E-01 3.23922E-01 3.20505E-03 9.17859E+02-1.46806E+01
 -1       115 8.70019E-01-9.28632E-02 2.16426E-01 3.20488E-03 9.18277E+02-1.44503E+01
 -1       116 6.48327E-01-7.23608E-02-6.81531E-02 3.31762E-03 9.18491E+02-1.46512E+01
 -1       117 1.14468E+00 1.95462E-01 3.01317E-01 3.24467E-03 9.18499E+02-1.59365E+01
 -1       118 9.67420E-01 2.33284E-01 2.80255E-01 3.09312E-03 9.18298E+02-1.69884E+01
 -1       119 9.65611E-01-7.83539E-03 5.12098E-01 3.09157E-03 9.17889E+02-1.67060E+01
 -1       120 6.56263E-01 1.25450E-01-3.04674E-01 3.07134E-03 9.17268E+02-1.62642E+01
 -1       121 8.03500E-01 4.37924E-02 6.49428E-01 3.03611E-03 9.16433E+02-1.68886E+01
 -1       122 6.04524E-01 2.51080E-01-2.56618E-01 3.02401E-03 9.15383E+02-1.79295E+01
 -1       123 7.17614E-01-4.20961E-02 4.25464E-01 2.97762E-03 9.14116E+02-1.91540E+01
 -1       124 5.26059E-01 1.67415E-01-1.31420E-01 2.87145E-03 9.12630E+02-1.96320E+01
 -1       125 5.76988E-01-3.75381E-01-1.88379E-01 2.86347E-03 9.10924E+02-1.95727E+01
 -1       126 5.68392E-01 4.77919E-01-2.83425E-01 2.88402E-03 9.08996E+02-2.01968E+01
 -1       127 6.75828E-01-6.49793E-03 6.42207E-01 2.80541E-03 9.06843E+02-2.12341E+01
 -1       128 3.84114E-01 1.22159E-01-3.36586E-01 2.87567E-03 9.04465E+02-2.18526E+01
 -1       129 6.79288E-01 2.51111E-01 9.43694E-01 2.88549E-03 9.01859E+02-2.27939E+01
 -1       130 7.27279E-01 1.64678E-01 5.43929E-01 2.72234E-03 8.99025E+02-2.44014E+01
 -1       131 6.67703E-01 1.81366E-01 7.37572E-01 2.74597E-03 8.95959E+02-2.63969E+01
 -1       132 5.00837E-01 8.40955E-02 1.68853E-01 2.84556E-03 8.92661E+02-2.84715E+01
 -1       133 9.38595E-01 4.04832E-01 2.90803E-01 2.81397E-03 8.89127E+02-3.05088E+01
 -1       134 1.04792E+00 1.13785E-01 3.43529E-03 2.85159E-03 8.85358E+02-3.29582E+01
 -1       135 8.25534E-01-2.59071E-01-1.29035E-01 2.87861E-03 8.81351E+02-3.52991E+01
 -1       136 8.00483E-01 9.21323E-02 6.10214E-01 2.78723E-03 8.77105E+02-3.75483E+01
 -1       137 4.45781E-01-3.42525E-02-8.05474E-01 2.66743E-03 8.72619E+02-3.86711E+01
 -1       138 8.82824E-01 1.20005E-01 9.40829E-01 2.49797E-03 8.67888E+02-3.73292E+01
 -1       139 1.01772E+00 4.21795E-01 3.48716E-01 2.26377E-03 8.62913E+02-3.60518E+01
 -1       140 4.04553E-01-4.25308E-01-3.92697E-01 2.27086E-03 8.57692E+02-3.64804E+01
 -1       141 7.95619E-01 3.99671E-02-3.88613E-01 2.23194E-03 8.52222E+02-3.52167E+01
 -1       142 4.24373E-01 1.33976E-01-1.27339E-01 2.07156E-03 8.46501E+02-3.27159E+01
 -1       143 9.97680E-01-1.90776E-01 5.90919E-01 1.98865E-03 8.40526E+02-3.19381E+01
 -1       144 8.00690E-01 5.97341E-02-4.26365E-01 1.93970E-03 8.34298E+02-3.12156E+01
 -1       145 8.47204E-01 6.32416E-02-1.04233E-01 1.93110E-03 8.27813E+02-3.08110E+01
 -1       146 1.04938E+00-2.23844E-01 8.23482E-01 1.87482E-03 8.21071E+02-3.14836E+01
 -1       147 5.53941E-01-1.80591E-01-8.32156E-01 1.73917E-03 8.14069E+02-3.14099E+01
 -1       148 9.51807E-01 5.11117E-01 4.04220E-01 1.45452E-03 8.06806E+02-2.95085E+01
 -1       149 1.05893E+00-1.91172E-01 7.61802E-01 1.32926E-03 7.99279E+02-2.77752E+01
 -1       150 8.95083E-01 3.93791E-01-7.59572E-01 1.35875E-03 7.91487E+02-2.74388E+01
 -1       151 1.31078E+00-1.73525E-01 8.85676E-01 1.35842E-03 7.83428E+02-2.60219E+01
 -1       152 3.85180E-01-3.67477E-01-1.03050E+00 1.31011E-03 7.75101E+02-2.46434E+01
 -1       153 7.39691E-01-8.39878E-02 3.90941E-02 1.05166E-03 7.66503E+02-2.34476E+01
 -1       154 7.31472E-01 2.13599E-01 2.79796E-02 6.65233E-04 7.57632E+02-2.30162E+01
 -1       155 5.39614E-01-3.30386E-01 1.65456E-01 4.95017E-04 7.48486E+02-2.38211E+01
 -1       156 6.02355E-01 3.43868E-01-2.94933E-01 4.43220E-04 7.39062E+02-2.40105E+01
 -1       157 6.53406E-01-1.53289E-01-1.06849E-01 3.80859E-04 7.29361E+02-2.33332E+01
 -1       158 7.82680E-01 4.41941E-01 2.55678E-01 4.37304E-04 7.19379E+02-2.30869E+01
 -1       159 7.91538E-01 1.45566E-01 3.44577E-01 4.51997E-04 7.09114E+02-2.37793E+01
 -1       160 7.94510E-01 1.68362E-03 4.33872E-01 5.50494E-04 6.98567E+02-2.44503E+01
 -1       161 6.79004E-01 1.84894E-01 4.97469E-01 6.89954E-04 6.87735E+02-2.35366E+01
 -1       162 2.81215E-01-2.93277E-01-1.30009E+00 8.91283E-04 6.76618E+02-2.25716E+01
 -1       163 4.85855E-01-2.93567E-01-4.87443E-01 1.03711E-03 6.65210E+02-2.27153E+01
 -1       164 6.51011E-01-2.29563E-01-2.88778E-02 1.04569E-03 6.53510E+02-2.10867E+01
 -1       165 7.01250E-01 1.70882E-01-2.70279E-01 8.04394E-04 6.41520E+02-2.07936E+01
 -1       166 7.68680E-01-2.32261E-01 4.63964E-01 4.62845E-04 6.29234E+02-2.14474E+01
 -1       167-1.50152E-03-7.96118E-01-2.11550E+00 3.63514E-04 6.16651E+02-2.04068E+01
 -1       168 9.39031E-01 3.17396E-01 1.72763E-01 3.98427E-04 6.03770E+02-2.03670E+01
 -1       169 3.57740E-01 7.62615E-02-3.09625E-01 4.53219E-04 5.90589E+02-2.07747E+01
 -1       170 3.55144E-01-5.09766E-01-4.51896E-01 3.34099E-04 5.77105E+02-1.97503E+01
 -1       171 5.07922E-01 1.28426E-01-5.65757E-01 4.50686E-04 5.63318E+02-1.78514E+01
 -1       172 4.39949E-01-3.57555E-01-1.72578E-01 5.56543E-04 5.49226E+02-1.70495E+01
 -1       173 5.50457E-01 2.11556E-01-6.99923E-01 2.77683E-04 5.34826E+02-1.64006E+01
 -1       174 1.37760E+00 5.09204E-01 2.19117E+00 1.78099E-04 5.20116E+02-1.41560E+01
 -1       175 5.53584E-02-3.36305E-01-1.43945E+00 2.03639E-04 5.05098E+02-1.25287E+01
 -1       176 1.12060E+00 2.41059E-01 1.55957E+00 1.85281E-04 4.89765E+02-1.11360E+01
 -1       177 4.44082E-01 5.26813E-02 1.82208E-02 3.80650E-04 4.74119E+02-1.14089E+01
 -1       178 5.10017E-01 2.17501E-01 2.42003E-01 5.49093E-04 4.58157E+02-1.11336E+01
 -1       179 3.90842E-02-5.05897E-01-1.13418E+00 5.01841E-04 4.41877E+02-1.00262E+01
 -1       180 7.63035E-01 5.09016E-01 1.34211E+00 4.55201E-04 4.25278E+02-1.02208E+01
 -1       181-2.58561E-01-4.42346E-01-1.48616E+00 5.94407E-04 4.08359E+02-9.36561E+00
 -1       182 4.40874E-01-6.01711E-01-3.05201E-01 6.15105E-04 3.91116E+02-8.24125E+00
 -1       183 3.47317E-01-2.86365E-01-1.35348E+00 4.43518E-04 3.73550E+02-6.34007E+00
 -1       184 8.62521E-01-2.66282E-01-6.04791E-01 3.64780E-04 3.55650E+02-6.16759E+00
 -1       185 6.90376E-01-3.17975E-01-7.85179E-01 4.65587E-04 3.37453E+02-6.77210E+00
 -1       186 3.76802E-01-1.25398E-01-5.83070E-01 5.73203E-04 3.18807E+02-4.85971E+00
 -1       187 8.90360E-01 3.44119E-02 7.49933E-01 5.41285E-04 3.00291E+02-4.46131E+00
 -1       188 1.92574E-01 4.09350E-01-2.34372E-01 3.76180E-04 2.79655E+02-4.36580E+00
 -1       189 4.90297E-01-6.28078E-01 6.47867E-02 2.28211E-04 2.65588E+02-3.90455E+00
 -1       190 1.91807E-01 5.05227E-01-1.09763E-01 3.52442E-04 2.24500E+02-5.12818E+00
 -1       191 6.79310E-01-6.59741E-02 7.83873E-01 3.49164E-04 2.86166E+02-4.99101E+00
 -1       192 8.65550E-01 1.03017E-01 2.33018E-01 3.53843E-04-5.08277E+01-3.37694E+00
 -1       193 3.55282E-01 1.79388E-01 5.08586E-01 3.19898E-04 1.15079E+03-4.05399E+00
 -1       194 7.93103E-01 2.49692E-01 6.06291E-01 3.14951E-04-3.59388E+03-5.58820E+00
 -1       195 7.59116E-01 5.46282E-01 1.08143E+00 3.03864E-04 1.46340E+04-6.58744E+00
 -1       196 7.40084E-01-3.29811E-02 2.76779E-01 3.09795E-05-5.58971E+04-7.11581E+00
 -1       197 9.93107E-02 2.62551E-01-5.06082E-01-1.29774E-04 2.16501E+05-4.48160E+00
 -1       198-9.67953E-02-1.03374E+00-3.61465E-01-3.09199E-04-8.36053E+05-1.73035E+00
 -1       199 4.52090E-01 1.01286E+00 4.74935E-01-2.74330E-04 3.23051E+06 1.26134E-02
 -1       200-3.11869E-01-5.04442E-01-3.44263E-01-1.85564E-04-1.24813E+07 5.96545E-01
 -1       201 2.61454E-01 5.96915E-01 5.03418E-01-2.18108E-04 4.82216E+07-1.13468E-01
 -3
    1PSTEP                         7           1           1          
    1PGM                1.000000E+00                                  
    1PGK                5.787577E+01                                  
    1PHID                         -1                                  
    1PSUBC                         0                                  
    1PMODE                         2                                  
  100CL  102 1.210789116         201                     2    2MODAL      1
 -4  TOSTRAIN    6    1
 -5  EXX         1    4    1    1
 -5  EYY         1    4    2    2
 -5  EZZ         1    4    3    3
 -5  EXY         1    4    1    2
 -5  EYZ         1    4    2    3
 -5  EZX         1    4    3    1
 -1         1-5.84719E-12 1.73602E-12 1.76515E-12 4.54328E-14-5.74681E-04 3.01146E-10
 -1         2-5.84333E-12 1.77526E-12 1.73607E-12 4.55877E-14 1.48746E-04 3.00993E-10
 -1         3-5.80161E-12 1.72042E-12 1.68653E-12 4.56375E-14-3.84988E-05 3.00688E-10
 -1         4-5.85936E-12 1.82577E-12 1.67363E-12 4.54426E-14 9.96493E-06 3.00341E-10
 -1         5-5.83133E-12 1.77896E-12 1.76089E-12 4.54558E-14-2.57849E-06 3.00770E-10
 -1         6-5.81292E-12 1.77641E-12 1.85474E-12 4.55159E-14 6.68229E-07 3.01176E-10
 -1         7-5.89024E-12 1.71860E-12 1.67121E-12 4.55588E-14-1.71923E-07 3.00534E-10
 -1         8-5.90262E-12 1.78636E-12 1.74232E-12 4.56616E-14 4.57053E-08 2.99570E-10
 -1         9-5.79987E-12 1.75061E-12 2.09301E-12 4.56293E-14-1.04457E-08 2.98780E-10
 -1        10-5.97409E-12 1.88041E-12 1.95614E-12 4.53639E-14 4.26391E-09 2.99067E-10
 -1        11-5.74195E-12 1.50257E-12 1.83837E-12 4.54680E-14 6.32847E-10 3.01028E-10
 -1        12-5.90362E-12 1.79886E-12 1.67265E-12 4.53301E-14 1.74855E-09 3.02373E-10
 -1        13-5.58969E-12 1.86980E-12 7.90377E-13 4.52073E-14 1.63538E-09 3.00563E-10
 -1        14-5.44486E-12 1.53213E-12 1.98939E-12 4.55098E-14 1.83997E-09 2.97846E-10
 -1        15-5.57330E-12 1.49164E-12 1.98567E-12 4.55256E-14 1.96197E-09 2.95728E-10
 -1        16-5.43593E-12 1.90130E-12 2.19723E-12 4.56809E-14 2.10498E-09 2.94158E-10
 -1        17-5.46442E-12 1.45459E-12 1.61949E-12 4.57351E-14 2.24216E-09 2.92432E-10
 -1        18-5.31089E-12 1.74870E-12 1.91383E-12 4.55508E-14 2.38043E-09 2.90237E-10
 -1        19-5.05168E-12 1.60111E-12 5.90369E-13 4.52739E-14 2.51798E-09 2.89723E-10
 -1        20-4.87982E-12 1.63369E-12 6.64091E-13 4.52585E-14 2.65523E-09 2.88585E-10
 -1        21-4.74584E-12 1.41564E-12 5.19434E-13 4.51932E-14 2.79207E-09 2.87278E-10
 -1        22-4.96391E-12 1.66808E-12 3.20072E-12 4.55677E-14 2.92848E-09 2.85491E-10
 -1        23-4.83580E-12 1.33676E-12 1.79654E-12 4.57323E-14 3.06446E-09 2.81016E-10
 -1        24-4.53606E-12 1.15701E-12 9.22085E-13 4.53765E-14 3.19997E-09 2.76731E-10
 -1        25-4.48334E-12 1.40785E-12 5.86500E-13 4.53552E-14 3.33500E-09 2.74412E-10
 -1        26-4.89202E-12 1.03795E-12 1.92729E-12 4.54693E-14 3.46951E-09 2.74243E-10
 -1        27-4.54420E-12 2.15862E-12 3.98025E-13 4.55280E-14 3.60350E-09 2.73429E-10
 -1        28-4.24278E-12 3.40563E-13 9.42057E-13 4.57065E-14 3.73694E-09 2.71255E-10
 -1        29-4.77431E-12 2.09017E-12-2.76478E-13 4.59216E-14 3.86982E-09 2.72113E-10
 -1        30-4.33189E-12 1.15085E-12 2.85799E-12 4.60988E-14 4.00210E-09 2.72877E-10
 -1        31-4.81012E-12 1.55575E-12 1.70496E-12 4.62928E-14 4.13377E-09 2.71161E-10
 -1        32-4.47808E-12 1.93056E-12 2.20414E-12 4.65866E-14 4.26480E-09 2.73587E-10
 -1        33-4.35672E-12 8.36229E-13 1.56122E-12 4.66003E-14 4.39519E-09 2.74044E-10
 -1        34-4.15738E-12 1.88059E-12-3.43853E-13 4.59214E-14 4.52490E-09 2.69959E-10
 -1        35-4.33458E-12 5.63443E-13 1.03405E-12 4.54714E-14 4.65391E-09 2.63689E-10
 -1        36-5.00220E-12 2.08243E-12 2.34591E-12 4.55992E-14 4.78221E-09 2.58142E-10
 -1        37-3.59781E-12 1.99815E-13-4.74049E-13 4.55100E-14 4.90977E-09 2.59353E-10
 -1        38-5.10055E-12 2.97512E-12 2.75056E-12 4.46748E-14 5.03657E-09 2.65448E-10
 -1        39-4.58626E-12 6.26083E-13 1.49831E-12 4.43330E-14 5.16259E-09 2.65460E-10
 -1        40-4.52142E-12 1.84191E-12 2.27656E-12 4.50432E-14 5.28781E-09 2.55105E-10
 -1        41-4.25636E-12 6.48226E-13 2.04165E-12 4.54049E-14 5.41221E-09 2.45473E-10
 -1        42-3.83679E-12 1.98001E-12 2.08068E-12 4.52015E-14 5.53577E-09 2.44462E-10
 -1        43-4.68164E-12 1.28690E-12 4.62415E-12 4.48736E-14 5.65846E-09 2.47855E-10
 -1        44-4.58886E-12 1.19654E-12 1.09149E-12 4.47316E-14 5.78027E-09 2.47611E-10
 -1        45-3.95652E-12 1.58618E-12-2.93819E-12 4.50317E-14 5.90116E-09 2.46263E-10
 -1        46-3.58229E-12-1.46136E-13 1.03886E-12 4.52585E-14 6.02113E-09 2.45674E-10
 -1        47-3.82889E-12 7.54170E-13 2.20132E-12 4.50343E-14 6.14016E-09 2.42722E-10
 -1        48-3.59347E-12 1.43540E-12 1.81357E-12 4.51570E-14 6.25821E-09 2.42077E-10
 -1        49-3.27199E-12 1.19985E-12-1.64380E-12 4.56894E-14 6.37527E-09 2.44782E-10
 -1        50-3.02363E-12 1.22814E-12-7.70145E-13 4.63321E-14 6.49132E-09 2.41616E-10
 -1        51-2.26864E-12 8.07649E-13 3.99283E-13 4.69863E-14 6.60634E-09 2.28722E-10
 -1        52-1.33373E-12 5.61802E-13 1.08670E-12 4.66461E-14 6.72031E-09 2.18446E-10
 -1        53-1.58133E-12 2.39017E-13-1.07438E-12 4.56885E-14 6.83320E-09 2.17022E-10
 -1        54-2.82030E-13 2.79541E-13 2.21493E-12 4.54964E-14 6.94499E-09 2.18602E-10
 -1        55 4.45222E-13-1.51867E-14-1.14232E-12 4.63267E-14 7.05567E-09 2.17434E-10
 -1        56-1.64852E-13-9.37946E-14 4.70263E-13 4.67007E-14 7.16521E-09 2.13816E-10
 -1        57 3.11110E-13 4.20673E-13 8.25155E-13 4.68048E-14 7.27359E-09 2.16756E-10
 -1        58 1.32685E-12-1.91306E-13 1.32269E-12 4.72302E-14 7.38080E-09 2.19674E-10
 -1        59 1.33571E-12-1.42227E-12 9.88167E-15 4.77121E-14 7.48680E-09 2.11972E-10
 -1        60 2.56941E-12-8.56933E-13-2.83359E-12 4.78003E-14 7.59159E-09 2.08052E-10
 -1        61 2.91046E-12-5.91521E-13 1.20003E-12 4.70576E-14 7.69512E-09 2.04482E-10
 -1        62 3.57762E-12-8.35250E-13-3.16823E-12 4.65602E-14 7.79739E-09 1.96005E-10
 -1        63 4.97507E-12-1.09339E-12-1.37757E-12 4.65014E-14 7.89837E-09 1.96785E-10
 -1        64 3.63948E-12-1.23909E-12 9.32331E-13 4.62876E-14 7.99804E-09 1.94220E-10
 -1        65 5.47542E-12-1.83285E-12-3.29676E-12 4.63084E-14 8.09639E-09 1.90422E-10
 -1        66 5.43424E-12-1.24332E-12-1.67684E-12 4.61855E-14 8.19340E-09 1.95902E-10
 -1        67 5.59169E-12-1.01352E-12-5.39922E-12 4.66283E-14 8.28904E-09 1.92709E-10
 -1        68 6.34937E-12-3.24381E-12 2.39195E-12 4.74169E-14 8.38329E-09 1.88588E-10
 -1        69 6.13555E-12-7.54665E-13-3.67890E-12 4.83652E-14 8.47612E-09 1.78782E-10
 -1        70 5.85030E-12-2.75714E-12-8.65270E-13 4.98588E-14 8.56752E-09 1.63975E-10
 -1        71 5.81217E-12 1.32177E-13-3.94936E-12 5.16065E-14 8.65746E-09 1.60349E-10
 -1        72 6.72094E-12-3.30586E-12-2.03158E-12 5.21156E-14 8.74593E-09 1.61218E-10
 -1        73 6.37683E-12-2.07371E-12-3.01315E-12 5.16497E-14 8.83289E-09 1.62395E-10
 -1        74 6.47182E-12-3.22271E-13-3.74238E-12 5.19951E-14 8.91834E-09 1.49570E-10
 -1        75 6.62872E-12-4.07325E-12-3.42881E-12 5.30984E-14 9.00225E-09 1.29599E-10
 -1        76 6.17266E-12 4.68007E-14-3.26498E-12 5.38697E-14 9.08459E-09 1.12099E-10
 -1        77 8.01454E-12-3.92014E-12 9.70705E-13 5.31253E-14 9.16536E-09 9.94060E-11
 -1        78 6.53280E-12-1.91736E-12-1.98430E-12 5.18064E-14 9.24452E-09 8.78050E-11
 -1        79 5.74977E-12-1.18431E-12-3.46842E-12 5.11019E-14 9.32205E-09 7.53883E-11
 -1        80 6.65864E-12-3.37980E-12 2.47713E-12 5.18216E-14 9.39794E-09 6.58344E-11
 -1        81 7.07457E-12-1.93449E-12 1.71587E-12 5.26200E-14 9.47216E-09 6.43020E-11
 -1        82 7.23723E-12-3.63916E-12-3.94147E-12 5.32421E-14 9.54469E-09 6.26011E-11
 -1        83 6.75713E-12-1.70163E-12-2.20385E-13 5.36559E-14 9.61552E-09 5.30133E-11
 -1        84 7.00021E-12-3.59915E-12-9.17099E-12 5.35945E-14 9.68461E-09 4.21876E-11
 -1        85 6.01045E-12-2.46770E-12 2.14707E-12 5.38595E-14 9.75195E-09 3.58743E-11
 -1        86 5.11581E-12-1.16637E-12-2.88764E-12 5.35670E-14 9.81752E-09 3.38191E-11
 -1        87 5.58533E-12-1.90147E-12-1.83959E-12 5.33130E-14 9.88130E-09 3.00325E-11
 -1        88 5.57453E-12-1.85550E-12-4.18447E-13 5.44365E-14 9.94325E-09 3.16851E-11
 -1        89 7.21071E-12-2.73834E-12 8.93345E-13 5.46774E-14 1.00034E-08 3.49823E-11
 -1        90 7.36133E-12-1.41439E-12 1.85442E-12 5.38757E-14 1.00616E-08 2.77719E-11
 -1        91 7.53530E-12-2.81400E-12-3.11128E-12 5.34093E-14 1.01180E-08 1.97247E-11
 -1        92 7.04448E-12-2.25029E-12-6.14509E-12 5.32027E-14 1.01725E-08 1.21356E-11
 -1        93 6.32127E-12-5.01748E-13-3.48643E-12 5.37075E-14 1.02251E-08 4.95359E-12
 -1        94 8.24976E-12-4.35663E-12 6.14649E-12 5.35878E-14 1.02757E-08-2.95245E-12
 -1        95 8.30780E-12-1.49849E-12-2.01400E-12 5.38779E-14 1.03243E-08-1.56828E-11
 -1        96 8.27032E-12-3.85996E-12 2.31637E-12 5.44185E-14 1.03710E-08-1.23573E-11
 -1        97 7.75768E-12-1.56766E-12-3.05391E-13 5.31704E-14 1.04156E-08-1.98449E-11
 -1        98 9.01114E-12-2.91748E-12-2.80283E-12 5.19342E-14 1.04583E-08-4.86662E-11
 -1        99 8.45668E-12-2.62143E-12-1.62616E-12 5.23435E-14 1.04988E-08-6.19292E-11
 -1       100 9.54000E-12-3.20246E-12 4.67281E-12 5.28299E-14 1.05373E-08-6.05829E-11
 -1       101 7.19647E-12-1.53650E-12-7.09466E-12 5.22013E-14 1.05738E-08-5.84181E-11
 -1       102 8.57515E-12-3.67942E-12-2.30550E-12 5.14421E-14 1.06081E-08-5.88631E-11
 -1       103 5.56508E-12-1.83131E-12 1.03921E-12 5.06717E-14 1.06403E-08-6.08620E-11
 -1       104 6.77701E-12-1.76386E-12-3.92390E-12 4.94873E-14 1.06703E-08-6.64298E-11
 -1       105 6.31132E-12-3.20019E-12 1.62856E-13 4.77650E-14 1.06981E-08-7.00209E-11
 -1       106 6.80285E-12-2.06238E-12-6.60633E-12 4.66220E-14 1.07238E-08-7.69047E-11
 -1       107 6.02218E-12-2.00282E-12-3.12548E-12 4.51158E-14 1.07472E-08-9.38818E-11
 -1       108 6.16771E-12-3.27491E-12 4.37608E-12 4.39306E-14 1.07684E-08-1.03799E-10
 -1       109 5.69664E-12-9.45720E-13-1.31556E-13 4.33299E-14 1.07874E-08-1.13559E-10
 -1       110 4.19205E-12 5.58286E-14-2.18557E-12 4.17739E-14 1.08040E-08-1.23418E-10
 -1       111 5.77173E-12-3.10231E-12 4.06375E-13 4.08536E-14 1.08184E-08-1.31049E-10
 -1       112 5.39978E-12 7.17131E-13 1.66295E-12 4.03696E-14 1.08304E-08-1.50059E-10
 -1       113 7.70217E-12-3.08220E-12-7.88658E-13 3.92375E-14 1.08401E-08-1.68013E-10
 -1       114 6.74142E-12-9.69905E-13-2.85979E-13 3.78773E-14 1.08474E-08-1.73498E-10
 -1       115 7.57228E-12-3.80724E-12-1.52011E-13 3.78753E-14 1.08524E-08-1.70777E-10
 -1       116 6.27710E-12-2.24012E-12-2.19039E-12 3.92080E-14 1.08549E-08-1.73150E-10
 -1       117 9.05130E-12-2.16670E-12-9.15677E-13 3.83456E-14 1.08550E-08-1.88341E-10
 -1       118 7.39416E-12-1.28199E-12-7.26876E-13 3.65547E-14 1.08526E-08-2.00772E-10
 -1       119 7.40302E-12-4.10135E-12 2.04332E-12 3.65370E-14 1.08478E-08-1.97435E-10
 -1       120 6.45482E-12 1.81579E-13-4.90171E-12 3.62976E-14 1.08404E-08-1.92213E-10
 -1       121 5.41395E-12-3.56442E-12 3.59309E-12 3.58810E-14 1.08306E-08-1.99592E-10
 -1       122 5.51077E-12 1.33371E-12-4.66636E-12 3.57381E-14 1.08182E-08-2.11894E-10
 -1       123 5.47821E-12-3.50018E-12 2.02554E-12 3.51897E-14 1.08032E-08-2.26366E-10
 -1       124 4.68419E-12 4.45663E-13-3.08602E-12 3.39349E-14 1.07856E-08-2.32015E-10
 -1       125 6.78287E-12-4.47239E-12-2.26237E-12 3.38414E-14 1.07655E-08-2.31314E-10
 -1       126 4.63676E-12 3.56753E-12-5.43017E-12 3.40834E-14 1.07427E-08-2.38690E-10
 -1       127 4.41014E-12-3.65371E-12 4.01280E-12 3.31551E-14 1.07172E-08-2.50948E-10
 -1       128 4.07675E-12 9.80912E-13-4.44062E-12 3.39850E-14 1.06891E-08-2.58258E-10
 -1       129 2.91678E-12-2.14349E-12 6.04159E-12 3.41014E-14 1.06583E-08-2.69382E-10
 -1       130 4.67907E-12-1.96986E-12 2.51220E-12 3.21730E-14 1.06248E-08-2.88380E-10
 -1       131 3.56383E-12-2.18379E-12 4.38956E-12 3.24526E-14 1.05886E-08-3.11964E-10
 -1       132 3.86321E-12-1.06192E-12-6.02432E-14 3.36291E-14 1.05496E-08-3.36481E-10
 -1       133 6.63550E-12 3.27392E-13-1.02023E-12 3.32562E-14 1.05079E-08-3.60558E-10
 -1       134 9.20681E-12-1.83291E-12-3.13704E-12 3.37003E-14 1.04633E-08-3.89506E-10
 -1       135 8.56332E-12-4.25474E-12-2.71794E-12 3.40201E-14 1.04160E-08-4.17171E-10
 -1       136 5.36163E-12-3.00979E-12 3.11299E-12 3.29400E-14 1.03658E-08-4.43753E-10
 -1       137 6.34272E-12 6.69595E-13-8.44484E-12 3.15245E-14 1.03128E-08-4.57022E-10
 -1       138 5.13249E-12-3.88264E-12 5.81800E-12 2.95217E-14 1.02569E-08-4.41163E-10
 -1       139 7.15058E-12 1.07860E-13-7.55791E-13 2.67536E-14 1.01981E-08-4.26067E-10
 -1       140 5.90868E-12-3.89877E-12-3.51337E-12 2.68381E-14 1.01364E-08-4.31132E-10
 -1       141 8.18375E-12-7.46677E-13-5.81172E-12 2.63776E-14 1.00717E-08-4.16198E-10
 -1       142 3.83984E-12 4.07872E-13-2.68040E-12 2.44826E-14 1.00041E-08-3.86642E-10
 -1       143 7.97852E-12-6.06687E-12 3.17134E-12 2.35025E-14 9.93349E-09-3.77451E-10
 -1       144 8.27891E-12-4.77850E-13-6.22266E-12 2.29235E-14 9.85988E-09-3.68912E-10
 -1       145 7.81365E-12-1.45136E-12-3.43061E-12 2.28214E-14 9.78325E-09-3.64131E-10
 -1       146 7.90442E-12-7.14275E-12 5.23474E-12 2.21574E-14 9.70356E-09-3.72079E-10
 -1       147 7.79786E-12-8.82964E-13-8.58328E-12 2.05532E-14 9.62082E-09-3.71208E-10
 -1       148 6.15642E-12 9.48259E-13-3.15065E-13 1.71894E-14 9.53498E-09-3.48737E-10
 -1       149 8.07034E-12-6.70355E-12 4.55887E-12 1.57099E-14 9.44602E-09-3.28253E-10
 -1       150 9.13470E-12 3.21034E-12-1.04203E-11 1.60577E-14 9.35393E-09-3.24277E-10
 -1       151 9.97399E-12-7.56785E-12 4.94999E-12 1.60546E-14 9.25869E-09-3.07532E-10
 -1       152 7.31431E-12-1.58072E-12-9.41649E-12 1.54839E-14 9.16028E-09-2.91240E-10
 -1       153 6.84690E-12-2.88748E-12-1.43288E-12 1.24284E-14 9.05867E-09-2.77108E-10
 -1       154 5.99090E-12-1.29425E-13-2.32311E-12 7.86198E-15 8.95383E-09-2.72010E-10
 -1       155 5.35539E-12-4.92643E-12 9.33524E-13 5.85079E-15 8.84574E-09-2.81522E-10
 -1       156 5.34249E-12 2.28765E-12-5.26182E-12 5.23886E-15 8.73437E-09-2.83761E-10
 -1       157 6.64952E-12-2.88415E-12-2.33531E-12 4.50031E-15 8.61972E-09-2.75756E-10
 -1       158 5.21267E-12 1.18576E-12-1.01553E-12 5.16731E-15 8.50175E-09-2.72845E-10
 -1       159 5.85905E-12-1.77517E-12 5.76781E-13 5.34165E-15 8.38044E-09-2.81028E-10
 -1       160 6.03494E-12-3.33483E-12 1.77286E-12 6.50608E-15 8.25579E-09-2.88959E-10
 -1       161 4.31178E-12-1.52771E-12 2.16636E-12 8.15407E-15 8.12778E-09-2.78160E-10
 -1       162 6.90203E-12 1.12585E-13-1.17861E-11 1.05332E-14 7.99639E-09-2.66755E-10
 -1       163 6.54689E-12-2.66446E-12-4.95573E-12 1.22569E-14 7.86157E-09-2.68454E-10
 -1       164 6.62312E-12-3.78366E-12-1.41193E-12 1.23575E-14 7.72330E-09-2.49206E-10
 -1       165 6.64609E-12 3.78099E-13-4.83563E-12 9.50672E-15 7.58160E-09-2.45743E-10
 -1       166 6.35609E-12-5.47322E-12 2.75489E-12 5.47045E-15 7.43640E-09-2.53469E-10
 -1       167 7.92713E-12-1.46380E-12-1.70565E-11 4.29583E-15 7.28770E-09-2.41171E-10
 -1       168 7.19985E-12-1.46750E-13-1.85605E-12 4.70869E-15 7.13547E-09-2.40701E-10
 -1       169 3.88862E-12 5.62064E-13-3.99841E-12 5.35574E-15 6.97968E-09-2.45519E-10
 -1       170 5.85130E-12-4.37036E-12-3.68645E-12 3.94866E-15 6.82033E-09-2.33412E-10
 -1       171 5.81020E-12 1.32524E-12-6.87874E-12 5.32690E-15 6.65739E-09-2.10971E-10
 -1       172 5.44535E-12-3.97969E-12-1.79360E-12 6.57742E-15 6.49085E-09-2.01494E-10
 -1       173 6.33607E-12 2.33087E-12-8.44115E-12 3.28145E-15 6.32067E-09-1.93826E-10
 -1       174 5.15898E-12-5.10388E-12 1.47739E-11 2.10509E-15 6.14683E-09-1.67299E-10
 -1       175 5.34623E-12 7.17481E-13-1.23197E-11 2.40671E-15 5.96934E-09-1.48067E-10
 -1       176 5.27650E-12-5.11813E-12 1.04643E-11 2.18987E-15 5.78813E-09-1.31607E-10
 -1       177 3.84374E-12-7.81904E-13-1.18916E-12 4.49857E-15 5.60322E-09-1.34833E-10
 -1       178 3.38332E-12-7.36803E-14 2.15891E-13 6.48982E-15 5.41458E-09-1.31579E-10
 -1       179 4.82825E-12-1.61244E-12-9.03761E-12 5.93102E-15 5.22219E-09-1.18491E-10
 -1       180 1.88816E-12-1.11389E-12 8.73179E-12 5.37938E-15 5.02602E-09-1.20792E-10
 -1       181 2.90901E-12 7.37014E-13-1.15990E-11 7.02498E-15 4.82606E-09-1.10684E-10
 -1       182 6.48134E-12-5.84011E-12-2.33591E-12 7.26893E-15 4.62228E-09-9.73966E-11
 -1       183 7.62973E-12 1.40760E-13-1.24706E-11 5.24125E-15 4.41469E-09-7.49280E-11
 -1       184 1.02168E-11-3.12365E-12-7.12420E-12 4.31057E-15 4.20314E-09-7.28897E-11
 -1       185 9.28475E-12-2.63213E-12-8.15363E-12 5.50211E-15 3.98808E-09-8.00339E-11
 -1       186 5.35765E-12-5.77427E-13-5.98628E-12 6.77453E-15 3.76771E-09-5.74330E-11
 -1       187 5.95506E-12-4.16069E-12 4.29547E-12 6.39614E-15 3.54890E-09-5.27245E-11
 -1       188 1.27346E-12 3.83536E-12-3.77227E-12 4.44653E-15 3.30502E-09-5.15959E-11
 -1       189 5.99350E-12-7.22366E-12 9.64734E-13 2.69771E-15 3.13877E-09-4.61446E-11
 -1       190 6.65162E-13 4.36921E-12-2.89885E-12 4.16464E-15 2.65318E-09-6.06057E-11
 -1       191 4.21764E-12-4.59026E-12 5.45338E-12 4.12669E-15 3.38196E-09-5.89847E-11
 -1       192 6.95218E-12-2.05958E-12-5.23198E-13 4.18155E-15-6.00691E-10-3.99093E-11
 -1       193 1.35354E-12-7.25206E-13 3.16532E-12 3.78040E-15 1.36002E-08-4.79108E-11
 -1       194 4.87553E-12-1.54661E-12 2.66775E-12 3.72163E-15-4.24731E-08-6.60423E-11
 -1       195 2.46183E-12-5.34703E-14 6.27101E-12 3.59109E-15 1.72947E-07-7.78515E-11
 -1       196 6.06313E-12-3.07309E-12 5.87706E-13 3.66677E-16-6.60602E-07-8.40960E-11
 -1       197 1.56700E-12 3.49620E-12-5.58764E-12-1.53350E-15 2.55865E-06-5.29644E-11
 -1       198 2.92514E-12-8.14780E-12-2.02778E-13-3.65376E-15-9.88062E-06-2.04496E-11
 -1       199 5.22819E-14 6.67957E-12 3.22274E-13-3.24155E-15 3.81788E-05 1.49067E-13
 -1       200-5.20522E-13-2.79639E-12-9.03357E-13-2.19269E-15-1.47506E-04 7.05008E-12
 -1       201-6.24057E-13 3.34049E-12 2.23552E-12-2.57715E-15 5.69891E-04-1.34098E-12
 -3
    1PSTEP                         8           1           1          
    1PGM                1.000000E+00                                  
    1PGK                5.787577E+01                                  
    1PHID                         -1                                  
    1PSUBC                         0                                  
    1PMODE                         2                                  
  100CL  102 1.210789116         201                     2    2MODAL      1
 -4  ERROR       1    1
 -5  STR(%)      1    1    0    0
 -1         1 3.28352E-01
 -1         2 3.28352E-01
 -1         3 4.97325E-02
 -1         4 6.51524E-02
 -1         5 8.31233E-02
 -1         6 1.01358E-01
 -1         7 1.19510E-01
 -1         8 1.37655E-01
 -1         9 1.55763E-01
 -1        10 1.73839E-01
 -1        11 1.91878E-01
 -1        12 2.09879E-01
 -1        13 2.27838E-01
 -1        14 2.45752E-01
 -1        15 2.63618E-01
 -1        16 2.81435E-01
 -1        17 2.99200E-01
 -1        18 3.16910E-01
 -1        19 3.34562E-01
 -1        20 3.52154E-01
 -1        21 3.69684E-01
 -1        22 3.87148E-01
 -1        23 4.04543E-01
 -1        24 4.21868E-01
 -1        25 4.39119E-01
 -1        26 4.56295E-01
 -1        27 4.73393E-01
 -1        28 4.90410E-01
 -1        29 5.07344E-01
 -1        30 5.24194E-01
 -1        31 5.40955E-01
 -1        32 5.57626E-01
 -1        33 5.74205E-01
 -1        34 5.90688E-01
 -1        35 6.07071E-01
 -1        36 6.23352E-01
 -1        37 6.39531E-01
 -1        38 6.55606E-01
 -1        39 6.71574E-01
 -1        40 6.87428E-01
 -1        41 7.03168E-01
 -1        42 7.18792E-01
 -1        43 7.34299E-01
 -1        44 7.49686E-01
 -1        45 7.64950E-01
 -1        46 7.80089E-01
 -1        47 7.95100E-01
 -1        48 8.09980E-01
 -1        49 8.24729E-01
 -1        50 8.39342E-01
 -1        51 8.53815E-01
 -1        52 8.68146E-01
 -1        53 8.82335E-01
 -1        54 8.96379E-01
 -1        55 9.10275E-01
 -1        56 9.24022E-01
 -1        57 9.37618E-01
 -1        58 9.51060E-01
 -1        59 9.64344E-01
 -1        60 9.77468E-01
 -1        61 9.90429E-01
 -1        62 1.00322E+00
 -1        63 1.01585E+00
 -1        64 1.02831E+00
 -1        65 1.04060E+00
 -1        66 1.05271E+00
 -1        67 1.06465E+00
 -1        68 1.07641E+00
 -1        69 1.08799E+00
 -1        70 1.09938E+00
 -1        71 1.11058E+00
 -1        72 1.12159E+00
 -1        73 1.13242E+00
 -1        74 1.14304E+00
 -1        75 1.15347E+00
 -1        76 1.16369E+00
 -1        77 1.17372E+00
 -1        78 1.18353E+00
 -1        79 1.19314E+00
 -1        80 1.20254E+00
 -1        81 1.21173E+00
 -1        82 1.22070E+00
 -1        83 1.22946E+00
 -1        84 1.23799E+00
 -1        85 1.24631E+00
 -1        86 1.25440E+00
 -1        87 1.26227E+00
 -1        88 1.26991E+00
 -1        89 1.27732E+00
 -1        90 1.28449E+00
 -1        91 1.29143E+00
 -1        92 1.29813E+00
 -1        93 1.30459E+00
 -1        94 1.31081E+00
 -1        95 1.31677E+00
 -1        96 1.32249E+00
 -1        97 1.32796E+00
 -1        98 1.33317E+00
 -1        99 1.33812E+00
 -1       100 1.34281E+00
 -1       101 1.34725E+00
 -1       102 1.35142E+00
 -1       103 1.35533E+00
 -1       104 1.35897E+00
 -1       105 1.36234E+00
 -1       106 1.36543E+00
 -1       107 1.36824E+00
 -1       108 1.37078E+00
 -1       109 1.37303E+00
 -1       110 1.37500E+00
 -1       111 1.37667E+00
 -1       112 1.37806E+00
 -1       113 1.37915E+00
 -1       114 1.37995E+00
 -1       115 1.38045E+00
 -1       116 1.38066E+00
 -1       117 1.38066E+00
 -1       118 1.38056E+00
 -1       119 1.38017E+00
 -1       120 1.37947E+00
 -1       121 1.37846E+00
 -1       122 1.37713E+00
 -1       123 1.37549E+00
 -1       124 1.37352E+00
 -1       125 1.37123E+00
 -1       126 1.36862E+00
 -1       127 1.36568E+00
 -1       128 1.36240E+00
 -1       129 1.35879E+00
 -1       130 1.35485E+00
 -1       131 1.35056E+00
 -1       132 1.34592E+00
 -1       133 1.34093E+00
 -1       134 1.33560E+00
 -1       135 1.32991E+00
 -1       136 1.32385E+00
 -1       137 1.31744E+00
 -1       138 1.31067E+00
 -1       139 1.30354E+00
 -1       140 1.29605E+00
 -1       141 1.28819E+00
 -1       142 1.27997E+00
 -1       143 1.27137E+00
 -1       144 1.26240E+00
 -1       145 1.25306E+00
 -1       146 1.24333E+00
 -1       147 1.23321E+00
 -1       148 1.22270E+00
 -1       149 1.21181E+00
 -1       150 1.20052E+00
 -1       151 1.18884E+00
 -1       152 1.17675E+00
 -1       153 1.16427E+00
 -1       154 1.15138E+00
 -1       155 1.13807E+00
 -1       156 1.12435E+00
 -1       157 1.11021E+00
 -1       158 1.09564E+00
 -1       159 1.08065E+00
 -1       160 1.06522E+00
 -1       161 1.04936E+00
 -1       162 1.03307E+00
 -1       163 1.01634E+00
 -1       164 9.99165E-01
 -1       165 9.81546E-01
 -1       166 9.63477E-01
 -1       167 9.44951E-01
 -1       168 9.25969E-01
 -1       169 9.06524E-01
 -1       170 8.86611E-01
 -1       171 8.66231E-01
 -1       172 8.45383E-01
 -1       173 8.24060E-01
 -1       174 8.02256E-01
 -1       175 7.79975E-01
 -1       176 7.57209E-01
 -1       177 7.33955E-01
 -1       178 7.10205E-01
 -1       179 6.85955E-01
 -1       180 6.61205E-01
 -1       181 6.35947E-01
 -1       182 6.10180E-01
 -1       183 5.83901E-01
 -1       184 5.57108E-01
 -1       185 5.29792E-01
 -1       186 5.01948E-01
 -1       187 4.73577E-01
 -1       188 4.44673E-01
 -1       189 4.15228E-01
 -1       190 3.85237E-01
 -1       191 3.54694E-01
 -1       192 3.23598E-01
 -1       193 2.91946E-01
 -1       194 2.59735E-01
 -1       195 2.26938E-01
 -1       196 1.93613E-01
 -1       197 1.59553E-01
 -1       198 1.25601E-01
 -1       199 9.06074E-02
 -1       200 3.34424E-01
 -1       201 3.34424E-01
 -3
    1PSTEP                         9           1           1          
    1PGM                1.000000E+00                                  
    1PGK                1.504716E+02                                  
    1PHID                         -1                                  
    1PSUBC                         0                                  
    1PMODE                         3                                  
  100CL  103 1.952303540         201                     2    3MODAL      1
 -4  DISP        4    1
 -5  D1          1    2    1    0
 -5  D2          1    2    2    0
 -5  D3          1    2    3    0
 -5  ALL         1    2    0    0    1ALL
 -1         1 0.00000E+00 0.00000E+00 2.64698E-23
 -1         2-2.02386E-07-1.44781E-09 2.14785E-08
 -1         3-4.08289E-07-2.29776E-09 1.07501E-07
 -1         4-5.74494E-07-3.00348E-09 3.08626E-07
 -1         5-6.63687E-07-3.75132E-09 6.81160E-07
 -1         6-7.96803E-07-4.13620E-09 1.27747E-06
 -1         7-8.42215E-07-4.51827E-09 2.14463E-06
 -1         8-9.02062E-07-4.88545E-09 3.32058E-06
 -1         9-7.66704E-07-4.99804E-09 4.82569E-06
 -1        10-8.15257E-07-4.93917E-09 6.65029E-06
 -1        11-6.67322E-07-4.83936E-09 8.75409E-06
 -1        12-6.10196E-07-5.13667E-09 1.10838E-05
 -1        13-5.03727E-07-5.90836E-09 1.35998E-05
 -1        14-5.51781E-07-6.84754E-09 1.62862E-05
 -1        15-4.83610E-07-7.97135E-09 1.91372E-05
 -1        16-5.13614E-07-9.36347E-09 2.21576E-05
 -1        17-3.79866E-07-1.04004E-08 2.53747E-05
 -1        18-3.82789E-07-1.08214E-08 2.88128E-05
 -1        19-2.16075E-07-1.12371E-08 3.24815E-05
 -1        20-2.21030E-07-1.17815E-08 3.63856E-05
 -1        21-6.25939E-08-1.22328E-08 4.05093E-05
 -1        22-3.85126E-08-1.28642E-08 4.48338E-05
 -1        23 1.16575E-07-1.35320E-08 4.93521E-05
 -1        24 6.74537E-08-1.39453E-08 5.40498E-05
 -1        25 1.18099E-07-1.47021E-08 5.89002E-05
 -1        26 5.21915E-08-1.56353E-08 6.38724E-05
 -1        27 4.48503E-08-1.63665E-08 6.89352E-05
 -1        28-7.20706E-08-1.68387E-08 7.40590E-05
 -1        29-2.80133E-08-1.74188E-08 7.92283E-05
 -1        30-7.87354E-08-1.81995E-08 8.44582E-05
 -1        31-1.18189E-08-1.84812E-08 8.97903E-05
 -1        32-1.22979E-07-1.82137E-08 9.52679E-05
 -1        33-8.16888E-08-1.76561E-08 1.00927E-04
 -1        34-1.63626E-07-1.70709E-08 1.06796E-04
 -1        35-1.23002E-07-1.62817E-08 1.12882E-04
 -1        36-1.05895E-07-1.52512E-08 1.19175E-04
 -1        37-1.13967E-07-1.39832E-08 1.25656E-04
 -1        38-1.04033E-07-1.29606E-08 1.32304E-04
 -1        39-1.04014E-07-1.24410E-08 1.39091E-04
 -1        40-9.41592E-08-1.23149E-08 1.45982E-04
 -1        41-9.24513E-08-1.23409E-08 1.52948E-04
 -1        42-1.01491E-07-1.21947E-08 1.59967E-04
 -1        43-1.57041E-07-1.21282E-08 1.67016E-04
 -1        44-2.05360E-07-1.22749E-08 1.74072E-04
 -1        45-2.68953E-07-1.29300E-08 1.81093E-04
 -1        46-3.75066E-07-1.36396E-08 1.88018E-04
 -1        47-3.99335E-07-1.42096E-08 1.94787E-04
 -1        48-3.73405E-07-1.47929E-08 2.01347E-04
 -1        49-3.10002E-07-1.52906E-08 2.07658E-04
 -1        50-3.11517E-07-1.57638E-08 2.13683E-04
 -1        51-2.56910E-07-1.63896E-08 2.19389E-04
 -1        52-2.82994E-07-1.69769E-08 2.24754E-04
 -1        53-2.67084E-07-1.73853E-08 2.29746E-04
 -1        54-2.61708E-07-1.77375E-08 2.34331E-04
 -1        55-2.48165E-07-1.80726E-08 2.38494E-04
 -1        56-1.97013E-07-1.84207E-08 2.42245E-04
 -1        57-1.43226E-07-1.88562E-08 2.45615E-04
 -1        58-6.84775E-08-1.92350E-08 2.48657E-04
 -1        59-1.18601E-08-1.98070E-08 2.51418E-04
 -1        60 6.04519E-08-2.06027E-08 2.53951E-04
 -1        61 1.21282E-07-2.12580E-08 2.56326E-04
 -1        62 1.89973E-07-2.18572E-08 2.58609E-04
 -1        63 1.86445E-07-2.22714E-08 2.60829E-04
 -1        64 1.62851E-07-2.23951E-08 2.62981E-04
 -1        65 9.84914E-08-2.22207E-08 2.65053E-04
 -1        66 1.87070E-07-2.18832E-08 2.67058E-04
 -1        67 1.34104E-07-2.16131E-08 2.69019E-04
 -1        68 2.78586E-07-2.14246E-08 2.70970E-04
 -1        69 2.90482E-07-2.10091E-08 2.72959E-04
 -1        70 4.40720E-07-2.01430E-08 2.75033E-04
 -1        71 3.86545E-07-1.90941E-08 2.77228E-04
 -1        72 4.98917E-07-1.82070E-08 2.79572E-04
 -1        73 4.09961E-07-1.77652E-08 2.82089E-04
 -1        74 4.45939E-07-1.73353E-08 2.84785E-04
 -1        75 3.95221E-07-1.66491E-08 2.87646E-04
 -1        76 4.44371E-07-1.55416E-08 2.90655E-04
 -1        77 4.03689E-07-1.42247E-08 2.93810E-04
 -1        78 5.08051E-07-1.30906E-08 2.97122E-04
 -1        79 5.03928E-07-1.20108E-08 3.00589E-04
 -1        80 5.66992E-07-1.07322E-08 3.04200E-04
 -1        81 6.26578E-07-9.38564E-09 3.07955E-04
 -1        82 6.51046E-07-7.99441E-09 3.11872E-04
 -1        83 6.97641E-07-6.74482E-09 3.15980E-04
 -1        84 7.51639E-07-5.64533E-09 3.20285E-04
 -1        85 7.67350E-07-4.58608E-09 3.24753E-04
 -1        86 7.62691E-07-3.76631E-09 3.29320E-04
 -1        87 8.03880E-07-3.70359E-09 3.33913E-04
 -1        88 8.44995E-07-4.13745E-09 3.38470E-04
 -1        89 9.09748E-07-4.47299E-09 3.42944E-04
 -1        90 9.86546E-07-4.59790E-09 3.47294E-04
 -1        91 1.01932E-06-4.59426E-09 3.51481E-04
 -1        92 9.54946E-07-4.51256E-09 3.55453E-04
 -1        93 9.22215E-07-4.65897E-09 3.59180E-04
 -1        94 8.77152E-07-5.01322E-09 3.62661E-04
 -1        95 8.61230E-07-4.96140E-09 3.65905E-04
 -1        96 8.44974E-07-4.21569E-09 3.68944E-04
 -1        97 8.96367E-07-3.20179E-09 3.71814E-04
 -1        98 8.80381E-07-2.14375E-09 3.74525E-04
 -1        99 8.71892E-07-9.76632E-10 3.77052E-04
 -1       100 8.37219E-07-1.18551E-11 3.79355E-04
 -1       101 8.43500E-07 6.22098E-10 3.81405E-04
 -1       102 8.65120E-07 7.41121E-10 3.83204E-04
 -1       103 8.46734E-07 8.41670E-10 3.84783E-04
 -1       104 7.18614E-07 1.29162E-09 3.86187E-04
 -1       105 7.05823E-07 1.76505E-09 3.87450E-04
 -1       106 5.10739E-07 2.21586E-09 3.88616E-04
 -1       107 4.91249E-07 2.55754E-09 3.89733E-04
 -1       108 3.53332E-07 2.81310E-09 3.90830E-04
 -1       109 3.66195E-07 2.92329E-09 3.91911E-04
 -1       110 2.60535E-07 3.15175E-09 3.92979E-04
 -1       111 2.74298E-07 3.37375E-09 3.94062E-04
 -1       112 1.93923E-07 3.41559E-09 3.95207E-04
 -1       113 1.99919E-07 3.84075E-09 3.96462E-04
 -1       114 1.72105E-07 4.61220E-09 3.97844E-04
 -1       115 2.69417E-07 5.16415E-09 3.99361E-04
 -1       116 2.28977E-07 5.34403E-09 4.01016E-04
 -1       117 3.26781E-07 5.28632E-09 4.02811E-04
 -1       118 3.21916E-07 5.23969E-09 4.04752E-04
 -1       119 4.06074E-07 5.16437E-09 4.06856E-04
 -1       120 4.34674E-07 4.94129E-09 4.09152E-04
 -1       121 5.75551E-07 4.47941E-09 4.11666E-04
 -1       122 6.70306E-07 4.06468E-09 4.14412E-04
 -1       123 8.27044E-07 3.59908E-09 4.17390E-04
 -1       124 8.82692E-07 2.79782E-09 4.20611E-04
 -1       125 9.49112E-07 1.74795E-09 4.24108E-04
 -1       126 9.11263E-07 8.08354E-10 4.27910E-04
 -1       127 9.25225E-07 7.62626E-11 4.32025E-04
 -1       128 8.91564E-07-4.41660E-10 4.36453E-04
 -1       129 8.93718E-07-7.24953E-10 4.41192E-04
 -1       130 9.10922E-07-1.01726E-09 4.46237E-04
 -1       131 9.24062E-07-1.42529E-09 4.51563E-04
 -1       132 8.80504E-07-1.65475E-09 4.57155E-04
 -1       133 8.74638E-07-1.47124E-09 4.63017E-04
 -1       134 7.89444E-07-1.21406E-09 4.69152E-04
 -1       135 7.33380E-07-1.09559E-09 4.75565E-04
 -1       136 5.72872E-07-7.95355E-10 4.82255E-04
 -1       137 4.07192E-07-2.09879E-10 4.89215E-04
 -1       138 2.01573E-07 6.49576E-10 4.96426E-04
 -1       139 1.09038E-07 1.40208E-09 5.03848E-04
 -1       140-3.41753E-08 2.20858E-09 5.11440E-04
 -1       141-9.75807E-08 3.38368E-09 5.19168E-04
 -1       142-1.95453E-07 4.74775E-09 5.26991E-04
 -1       143-2.48671E-07 5.97952E-09 5.34869E-04
 -1       144-2.75247E-07 6.95699E-09 5.42767E-04
 -1       145-3.58075E-07 7.87477E-09 5.50663E-04
 -1       146-3.60602E-07 8.84882E-09 5.58556E-04
 -1       147-4.42016E-07 9.57746E-09 5.66473E-04
 -1       148-3.92733E-07 1.00643E-08 5.74467E-04
 -1       149-3.69850E-07 1.05540E-08 5.82605E-04
 -1       150-2.35684E-07 1.10280E-08 5.90966E-04
 -1       151-1.74583E-07 1.14929E-08 5.99631E-04
 -1       152 3.28714E-08 1.16475E-08 6.08664E-04
 -1       153 6.33087E-08 1.13747E-08 6.18090E-04
 -1       154 1.99674E-07 1.08182E-08 6.27918E-04
 -1       155 2.12563E-07 9.84593E-09 6.38153E-04
 -1       156 3.33266E-07 8.64344E-09 6.48795E-04
 -1       157 3.82076E-07 7.43955E-09 6.59837E-04
 -1       158 5.78633E-07 6.15420E-09 6.71259E-04
 -1       159 6.23816E-07 4.95623E-09 6.83032E-04
 -1       160 7.86482E-07 4.06539E-09 6.95127E-04
 -1       161 8.00432E-07 2.99379E-09 7.07501E-04
 -1       162 1.06278E-06 1.28091E-09 7.20097E-04
 -1       163 1.12948E-06-6.51251E-10 7.32843E-04
 -1       164 1.30182E-06-2.27834E-09 7.45657E-04
 -1       165 1.25789E-06-3.82029E-09 7.58466E-04
 -1       166 1.38229E-06-5.28420E-09 7.71216E-04
 -1       167 1.35708E-06-6.47518E-09 7.83856E-04
 -1       168 1.45800E-06-7.65392E-09 7.96347E-04
 -1       169 1.37983E-06-8.87753E-09 8.08664E-04
 -1       170 1.45782E-06-1.04780E-08 8.20804E-04
 -1       171 1.33165E-06-1.22187E-08 8.32785E-04
 -1       172 1.38785E-06-1.40015E-08 8.44652E-04
 -1       173 1.25688E-06-1.61119E-08 8.56463E-04
 -1       174 1.30239E-06-1.86093E-08 8.68265E-04
 -1       175 1.18704E-06-2.15547E-08 8.80097E-04
 -1       176 1.24189E-06-2.46556E-08 8.91984E-04
 -1       177 1.11944E-06-2.78541E-08 9.03958E-04
 -1       178 1.07350E-06-3.11555E-08 9.16060E-04
 -1       179 9.48710E-07-3.44805E-08 9.28312E-04
 -1       180 9.71796E-07-3.76960E-08 9.40721E-04
 -1       181 8.65330E-07-4.08184E-08 9.53276E-04
 -1       182 7.86732E-07-4.37393E-08 9.65945E-04
 -1       183 5.89019E-07-4.64150E-08 9.78683E-04
 -1       184 5.06818E-07-4.93276E-08 9.91448E-04
 -1       185 3.68510E-07-5.21043E-08 1.00420E-03
 -1       186 3.95633E-07-5.45935E-08 1.01691E-03
 -1       187 2.21247E-07-5.71210E-08 1.02958E-03
 -1       188 2.10685E-07-5.98039E-08 1.04219E-03
 -1       189 4.07940E-09-6.22430E-08 1.05478E-03
 -1       190 1.68830E-08-6.41096E-08 1.06734E-03
 -1       191-4.84195E-08-6.56644E-08 1.07987E-03
 -1       192 1.96503E-08-6.71015E-08 1.09237E-03
 -1       193-4.42790E-09-6.82805E-08 1.10487E-03
 -1       194 6.43152E-08-6.92560E-08 1.11736E-03
 -1       195 2.93604E-08-7.01895E-08 1.12986E-03
 -1       196 2.57256E-08-7.11296E-08 1.14234E-03
 -1       197 3.10986E-08-7.19340E-08 1.15480E-03
 -1       198 1.20685E-07-7.21191E-08 1.16724E-03
 -1       199 2.17838E-07-7.18803E-08 1.17964E-03
 -1       200 2.31942E-07-7.16494E-08 1.19203E-03
 -1       201 2.18570E-07-7.16030E-08 1.20440E-03
 -3
    1PSTEP                        10           1           1          
    1PGM                1.000000E+00                                  
    1PGK                1.504716E+02                                  
    1PHID                         -1                                  
    1PSUBC                         0                                  
    1PMODE                         3                                  
  100CL  103 1.952303540         201                     2    3MODAL      1
 -4  STRESS      6    1
 -5  SXX         1    4    1    1
 -5  SYY         1    4    2    2
 -5  SZZ         1    4    3    3
 -5  SXY         1    4    1    2
 -5  SYZ         1    4    2    3
 -5  SZX         1    4    3    1
 -1         1 1.27591E+05 1.95133E+09-7.85060E+01-7.38391E+04-2.68422E+03-3.15927E+02
 -1         2 1.32102E+05-1.80206E+09-5.30858E+01-5.15311E+04 7.17641E+02-2.05346E+04
 -1         3 1.29719E+05 1.95392E+09 7.92133E+01-2.77170E+04-1.38849E+02-2.54519E+04
 -1         4 1.34994E+05-1.83116E+09 2.35283E+02-4.12295E+04-2.42311E+02-2.22166E+04
 -1         5 1.34456E+05 1.89746E+09 3.48859E+01-2.98277E+04-1.88151E+02-2.10250E+04
 -1         6 1.41788E+05-1.79892E+09-3.24307E+02-1.51365E+04-4.83121E+01-1.94073E+04
 -1         7 1.40961E+05 1.83316E+09 4.27774E+01-2.80266E+04 1.72391E+02-1.34536E+04
 -1         8 1.48221E+05-1.78831E+09-1.18078E+02-1.40283E+04 7.71454E+01-5.68121E+03
 -1         9 1.48750E+05 1.69004E+09-7.66675E+00-9.89184E+03 2.07340E+02 1.35466E+04
 -1        10 1.55987E+05-1.65342E+09-4.18939E+01 5.51160E+02 1.14123E+02 2.29428E+04
 -1        11 1.56435E+05 1.54598E+09-3.05884E+01-7.75905E+03-8.61621E+01 2.50884E+04
 -1        12 1.61521E+05-1.58681E+09-1.17565E+02-2.91789E+04-1.00500E+01 9.35585E+03
 -1        13 1.61361E+05 1.50980E+09 7.30589E+01-4.28012E+04-7.65921E+01 1.38117E+03
 -1        14 1.66885E+05-1.47346E+09 1.06037E+01-4.28998E+04-2.04637E+02 3.44516E+03
 -1        15 1.65600E+05 1.42457E+09 4.42529E+02-5.69014E+04 5.30966E+01-4.06720E+03
 -1        16 1.70833E+05-1.40145E+09 1.07550E+02-6.13070E+04 1.32697E+02-2.35765E+04
 -1        17 1.70360E+05 1.30450E+09 2.67430E+02-3.12193E+04-8.00951E+01 1.24862E+03
 -1        18 1.74633E+05-1.30120E+09-9.99668E+01-1.56479E+04 1.06285E+02-5.95238E+03
 -1        19 1.73079E+05 1.18010E+09 2.45976E+02-2.80817E+04 4.12516E+01-2.22714E+03
 -1        20 1.76937E+05-1.17530E+09-3.02726E+02-2.70590E+04-3.16538E+01 1.83368E+04
 -1        21 1.75755E+05 1.06029E+09-2.04299E+02-2.12160E+04 2.89522E+02 8.66863E+02
 -1        22 1.78276E+05-1.07677E+09-7.28593E+01-3.97529E+04 8.70904E+01 9.57229E+02
 -1        23 1.75952E+05 9.64224E+08-1.56223E+02-2.28135E+04 7.13723E+01 1.06056E+04
 -1        24 1.77270E+05-9.27024E+08-9.00232E-01-2.40142E+04 7.06217E+01 1.35126E+04
 -1        25 1.75313E+05 8.91059E+08 1.23407E+02-4.46061E+04-8.20641E+00 1.23884E+04
 -1        26 1.76769E+05-8.41553E+08-9.69373E+01-3.95075E+04 1.98167E+01 1.35880E+04
 -1        27 1.74659E+05 8.48106E+08 2.04302E+02-2.88472E+04 3.03937E+01 1.32507E+04
 -1        28 1.77164E+05-7.61196E+08 1.67387E+02-2.01542E+04 1.01793E+02 2.27028E+03
 -1        29 1.75976E+05 7.30068E+08-1.10476E+02-3.64939E+04-4.80490E+01-1.58200E+04
 -1        30 1.77756E+05-6.91696E+08-9.76360E+01-3.39426E+04 1.21943E+02-2.28797E+04
 -1        31 1.77165E+05 6.43810E+08 2.32011E+01-1.56218E+03-1.77437E+02-1.41558E+04
 -1        32 1.78797E+05-5.61109E+08-3.19197E+02 1.06368E+04-1.69284E+02-1.59431E+04
 -1        33 1.78173E+05 5.32021E+08 9.27102E+01 1.80194E+04-5.49148E+01-8.66026E+03
 -1        34 1.80265E+05-4.70744E+08 4.42792E+01 1.59408E+04 1.00157E+02 1.36766E+03
 -1        35 1.80491E+05 4.42160E+08-6.49945E+01 3.00007E+04-5.20131E+00 9.21915E+03
 -1        36 1.80871E+05-4.53500E+08 4.15565E+02 3.73414E+04 1.45352E+02 7.54835E+03
 -1        37 1.81488E+05 4.60622E+08-1.30276E+02 4.61583E+04 7.35098E+01 7.65294E+03
 -1        38 1.83911E+05-4.66683E+08-5.02805E+01 1.88461E+04 1.33494E+02 1.58717E+04
 -1        39 1.83114E+05 4.67891E+08 2.89591E+02 9.82046E+03-3.37138E+01 1.65531E+04
 -1        40 1.84603E+05-4.73892E+08 1.81304E+02-1.25996E+04-8.70048E+01 7.59561E+03
 -1        41 1.84934E+05 4.73868E+08 3.63823E+01-2.82526E+02 5.84794E+01 1.08094E+04
 -1        42 1.86804E+05-4.65997E+08-1.45238E+01-1.92748E+03-4.07960E+01 7.87492E+03
 -1        43 1.86456E+05 5.07973E+08 3.38872E+02-2.68647E+03-1.61675E+02 8.77543E+03
 -1        44 1.88565E+05-4.71289E+08 2.28675E+02-2.15324E+04-1.61441E+02 2.56005E+04
 -1        45 1.88775E+05 5.19178E+08 1.58314E+02-3.82316E+04 3.05507E+02 2.88639E+04
 -1        46 1.91606E+05-4.40096E+08 1.56580E+02-2.71861E+04-9.34140E+01 2.29441E+04
 -1        47 1.92262E+05 4.59172E+08 3.79494E+02-2.76532E+04 2.93596E+01 2.00959E+04
 -1        48 1.95723E+05-4.76896E+08-8.49793E+01-2.74814E+04-2.41835E+02 1.25859E+04
 -1        49 1.97638E+05 4.31715E+08-7.61120E+01-2.09304E+04 9.96937E+01 1.74932E+04
 -1        50 1.99886E+05-4.29276E+08 8.13047E+01-2.63297E+04-3.50056E+02 1.16168E+04
 -1        51 2.00416E+05 3.90565E+08-1.77316E+02-3.15310E+04 9.08552E+01 3.46029E+03
 -1        52 2.02811E+05-3.70091E+08-1.69459E+02-2.37058E+04 2.52712E+01 2.22755E+04
 -1        53 2.03310E+05 3.59778E+08 3.58704E+01-1.80074E+04-3.82039E+02 1.35551E+04
 -1        54 2.05953E+05-3.62358E+08-1.96545E+02-1.91154E+04 1.59048E+02-4.75980E+03
 -1        55 2.07169E+05 3.53807E+08-2.14257E+02-1.67375E+04 4.56935E+01-2.18523E+03
 -1        56 2.08940E+05-3.89930E+08 1.28066E+02-1.96345E+04-1.03468E+02-2.34558E+04
 -1        57 2.09718E+05 3.51882E+08-8.01068E+01-2.36397E+04-3.01307E+01-2.51074E+04
 -1        58 2.11254E+05-4.05289E+08-1.80422E+02-1.46006E+04 2.17665E+02-1.25992E+04
 -1        59 2.10876E+05 3.65176E+08 1.64295E+02-4.01867E+04 6.04519E+01-2.82763E+04
 -1        60 2.12695E+05-4.16791E+08-6.04335E+01-2.78358E+04-5.55046E+01-3.39042E+04
 -1        61 2.12000E+05 3.73601E+08-1.20784E+02-3.30951E+04-1.46353E+02-2.56512E+04
 -1        62 2.12440E+05-4.22558E+08-1.07130E+02-2.12090E+04-2.06062E+02 3.59561E+02
 -1        63 2.11482E+05 4.26559E+08 7.45746E+01-1.91348E+04 2.04357E+01 1.02434E+04
 -1        64 2.12164E+05-4.07845E+08 1.89787E+02-7.95637E+02 4.92342E+01 1.61247E+03
 -1        65 2.11264E+05 4.56452E+08 2.12728E+02 6.04555E+03 3.49256E+02-1.27042E+04
 -1        66 2.11790E+05-5.19998E+08 4.78590E+01 1.01182E+04 9.46871E+01-6.24538E+03
 -1        67 2.10390E+05 5.60246E+08 5.06206E+01 1.52395E+03 6.74982E+00-2.22481E+04
 -1        68 2.12110E+05-6.64790E+08 4.95856E+01 3.83171E+03-5.52167E+01-1.93962E+04
 -1        69 2.09806E+05 6.57479E+08 7.94255E+01 2.01356E+04 1.36843E+02-2.05084E+04
 -1        70 2.10028E+05-7.66257E+08-6.84176E+01 3.53350E+04 1.32737E+01-9.36487E+03
 -1        71 2.08130E+05 8.07382E+08-2.94744E+01 3.77355E+04 1.03901E+02-1.42266E+04
 -1        72 2.08888E+05-8.88397E+08-2.78962E+02 1.90125E+04 2.00929E+01-6.74898E+03
 -1        73 2.05043E+05 9.55014E+08 7.52562E+01 8.29698E+03-9.83854E+01 4.84158E+02
 -1        74 2.05193E+05-9.80033E+08 9.98548E+01 1.51610E+04-1.18117E+01 1.29159E+04
 -1        75 2.02637E+05 1.01859E+09-1.67421E+02 2.93930E+04-2.55811E+00 6.36933E+03
 -1        76 2.03678E+05-1.05327E+09-1.80510E+01 4.68953E+04 3.06354E+02-6.60576E+03
 -1        77 1.99910E+05 1.08445E+09 3.13887E+02 4.47417E+04-4.07266E+01-5.37028E+03
 -1        78 2.00984E+05-1.15965E+09 6.18722E+01 3.36859E+04-5.31838E+01 5.57662E+03
 -1        79 1.97372E+05 1.16400E+09 2.85610E+02 4.13452E+04 1.74800E+02 8.12316E+03
 -1        80 1.98120E+05-1.20893E+09-7.62106E+01 4.71444E+04 2.60048E+02-7.48792E+03
 -1        81 1.93902E+05 1.16654E+09-1.69241E+02 4.91989E+04 3.75320E+02-8.48941E+03
 -1        82 1.93698E+05-1.18320E+09 2.75381E+02 4.72181E+04-4.50018E+01-1.83075E+04
 -1        83 1.89014E+05 1.15030E+09-1.32278E+02 4.21568E+04 3.31779E+02 8.00687E+03
 -1        84 1.88987E+05-1.18864E+09-6.83262E+01 3.34002E+04 2.48575E+02 2.35777E+04
 -1        85 1.84043E+05 1.17836E+09 1.92390E+02 4.02717E+04-3.82465E+02 3.26050E+04
 -1        86 1.83509E+05-1.17372E+09-3.44725E+02 1.50001E+04 2.28853E+02 3.21118E+04
 -1        87 1.78535E+05 1.14472E+09 7.75296E+01-1.68089E+04-5.46809E+01 1.79872E+04
 -1        88 1.78629E+05-1.17368E+09-2.50864E+02-2.24702E+04 3.87829E+02 2.13925E+04
 -1        89 1.73435E+05 1.12737E+09-3.76447E+02-8.84048E+03-4.91948E+01 1.01946E+04
 -1        90 1.71738E+05-1.18253E+09-8.90054E+01-7.39240E+03 1.61503E+02 2.18571E+04
 -1        91 1.65601E+05 1.15962E+09-7.69622E+01 1.51925E+03 8.36641E+01 2.54709E+04
 -1        92 1.64283E+05-1.11131E+09 1.35432E+02-1.41020E+03-1.18311E+02 6.60421E+02
 -1        93 1.58588E+05 1.13638E+09 2.57215E+02-1.55679E+04 4.17035E+02-1.42249E+03
 -1        94 1.58340E+05-1.10228E+09-8.92959E+01-1.67348E+04 2.01033E+01-6.76007E+03
 -1        95 1.52635E+05 1.11500E+09-1.11866E+02 1.49524E+04-2.97626E+01-1.90189E+04
 -1        96 1.51393E+05-1.10206E+09-3.21601E+00 3.58136E+04 2.32139E+01-1.72650E+04
 -1        97 1.46808E+05 1.06537E+09-1.12347E+02 3.56551E+04 5.57042E+01 7.25367E+03
 -1        98 1.45697E+05-1.05267E+09 3.93416E+01 3.91575E+04-1.68230E+01 1.65177E+04
 -1        99 1.40441E+05 1.05985E+09 5.71190E+02 4.40158E+04 1.35134E+02 1.99145E+04
 -1       100 1.39911E+05-1.03348E+09 1.65500E+02 2.46361E+04 3.97349E+01 6.43357E+03
 -1       101 1.34273E+05 1.02979E+09 9.59005E+01 1.73675E+04 1.89123E+02-5.46605E+03
 -1       102 1.33206E+05-1.04476E+09 3.12986E+02-1.27831E+04 2.33168E+02-2.59211E+04
 -1       103 1.28772E+05 1.05911E+09-1.39352E+02 1.58324E+04 6.98086E+01-1.24794E+04
 -1       104 1.27916E+05-9.64304E+08 3.03033E+01 1.33433E+04 2.11689E+02-1.42050E+04
 -1       105 1.23461E+05 9.74519E+08 1.43023E+02 1.76141E+04-6.80685E+01-2.25026E+04
 -1       106 1.23915E+05-8.30636E+08 2.50817E+02 1.23147E+04-5.60241E+01-2.32902E+04
 -1       107 1.20995E+05 8.45744E+08-5.49175E+01 8.40089E+03 2.34096E+02 6.90982E+01
 -1       108 1.20961E+05-7.43800E+08 3.69936E+02 7.54490E+03-6.10334E+01 2.38330E+01
 -1       109 1.18749E+05 7.35163E+08 4.08625E+01-4.15826E+03 3.85098E+02-4.37195E+02
 -1       110 1.19846E+05-6.56884E+08 1.60022E+02 1.70533E+04 4.39539E+01-1.92389E+04
 -1       111 1.18475E+05 6.47582E+08 8.10946E+01-4.03610E+03 2.75465E+02-2.77749E+04
 -1       112 1.19212E+05-5.87847E+08-1.31326E+02 3.34175E+03 1.76047E+02-1.19709E+04
 -1       113 1.17987E+05 5.84237E+08-1.27179E+02 2.52056E+04-6.06952E+01-1.65423E+03
 -1       114 1.19346E+05-5.63045E+08-1.52242E+02 2.80624E+04 1.97613E+02-3.64626E+03
 -1       115 1.17603E+05 4.92473E+08 1.56485E+02 1.16570E+04 6.21584E+01 1.12720E+03
 -1       116 1.18789E+05-4.62029E+08-3.28270E+02-3.01790E+03-8.49869E+01-1.33206E+03
 -1       117 1.17681E+05 3.91098E+08-1.25626E+02-3.53976E+03-6.03610E+01-8.60266E+02
 -1       118 1.17232E+05-3.86746E+08 1.45186E+02-4.20256E+03-1.37068E+02-1.50137E+04
 -1       119 1.16628E+05 3.25807E+08-3.32068E+02-4.64082E+03 1.63838E+02-1.19566E+04
 -1       120 1.16317E+05-3.45996E+08-1.48528E+02-1.60030E+04 2.71557E+02-9.78013E+03
 -1       121 1.13677E+05 2.43452E+08 3.96865E+02-2.07043E+04 1.80468E+02-3.65041E+03
 -1       122 1.12677E+05-3.12180E+08-7.71025E+01-1.54837E+04-5.55063E+01 6.36064E+03
 -1       123 1.09855E+05 1.97983E+08 1.78723E+02-2.09326E+04 3.18427E+02-1.06099E+04
 -1       124 1.07062E+05-2.38065E+08-1.77147E+02-4.38734E+04 2.32877E+02-2.23078E+04
 -1       125 1.03804E+05 1.90057E+08 1.70216E+01-3.82846E+04 2.74196E+01-4.53889E+03
 -1       126 1.01272E+05-1.61614E+08-3.04090E+02-3.48224E+04-1.95610E+02-1.16072E+03
 -1       127 9.72042E+04 1.52036E+08 2.21511E+02-2.32863E+04 1.04208E+02 4.56475E+03
 -1       128 9.44636E+04-1.26713E+08-5.14412E-01-1.85568E+04-1.85797E+02-7.33993E+03
 -1       129 9.15404E+04 1.25754E+08-1.58210E+02-5.05578E+03 3.53891E+02 1.13735E+04
 -1       130 8.84765E+04-1.37768E+08 4.23038E+01-1.93504E+04 1.58586E+02 1.47470E+04
 -1       131 8.49202E+04 1.28708E+08-4.84453E+01-1.36548E+04 6.70040E+00-2.79599E+03
 -1       132 8.25045E+04-9.62075E+07-1.70834E+02-5.06978E+03 1.52956E+01-1.83853E+03
 -1       133 7.93546E+04 1.01049E+08-4.23878E+01 1.61693E+04-1.08912E+02-1.14502E+03
 -1       134 7.66525E+04-3.80548E+07-1.12139E+02 2.33319E+03 6.70602E+01-2.79361E+03
 -1       135 7.36061E+04 7.96682E+07-2.27728E+02 4.83662E+03-2.28989E+01 4.08285E+03
 -1       136 7.17571E+04 3.85161E+07-3.69621E+01 1.63103E+04 3.59024E+02-1.32452E+02
 -1       137 7.09138E+04 8.34542E+07-1.42679E+02 2.68998E+04 1.07215E+02 1.51094E+04
 -1       138 7.02020E+04 6.77992E+07 3.87797E+01 3.65094E+04 1.74984E+02 2.21064E+04
 -1       139 7.04953E+04 5.23686E+05 8.65483E+01 1.94172E+04 1.78458E+02 1.04667E+04
 -1       140 7.15407E+04 1.04969E+08 1.76051E+02 4.05235E+04 1.69984E+02 1.71564E+04
 -1       141 7.27593E+04-5.79922E+07-1.18090E+02 4.82697E+04-4.79794E+01 1.82634E+04
 -1       142 7.35592E+04 1.30251E+08 1.44317E+02 5.30623E+04 2.98400E+02 1.47870E+04
 -1       143 7.56234E+04-9.07300E+07-5.18341E+01 4.01711E+04 1.35694E+02 1.58434E+04
 -1       144 7.85017E+04 1.10730E+08 4.01427E+01 3.20740E+04 6.62318E+01 3.63935E+03
 -1       145 8.06576E+04-4.94552E+07-1.12965E+02 3.80173E+04 2.80465E+02-3.82871E+03
 -1       146 8.25753E+04 5.18470E+07 1.02379E+02 3.45516E+04-1.88275E+02-1.55272E+04
 -1       147 8.55619E+04 8.41902E+06-3.98522E+02 2.01343E+04-3.29519E+01-3.18013E+04
 -1       148 8.80512E+04-4.39818E+07-1.82470E+02 1.68983E+04-5.27068E+01-2.39126E+04
 -1       149 9.08527E+04 2.77986E+07 9.20719E+01 1.93305E+04-1.40697E+02-4.10592E+04
 -1       150 9.31940E+04-1.25570E+08-1.82377E+02 1.69021E+04 2.03600E+02-3.25224E+04
 -1       151 9.49686E+04 8.13914E+07-1.53456E+02 1.77705E+04 1.01033E+02-2.19874E+04
 -1       152 9.67981E+04-2.32880E+08 1.78121E+02-6.25293E+03 8.69698E+01 1.96980E+03
 -1       153 9.69590E+04 2.11207E+08-7.45081E+01-1.34407E+04 1.29398E+02-4.69461E+03
 -1       154 9.75833E+04-3.10556E+08-6.31311E+01-2.94179E+04-2.80740E+01-1.92051E+03
 -1       155 9.71263E+04 3.01754E+08 4.28411E+01-4.40650E+04 1.14196E+02 1.49198E+03
 -1       156 9.77464E+04-3.89616E+08-8.95565E+01-4.62470E+04-1.39448E+02 5.83463E+03
 -1       157 9.60183E+04 3.54471E+08-2.09447E+02-4.52780E+04-3.67989E+02 1.02958E+04
 -1       158 9.57539E+04-4.97970E+08-8.23767E+01-5.13922E+04 1.09451E+02 1.42106E+04
 -1       159 9.26102E+04 4.65469E+08 1.03127E+02-3.81816E+04 1.79310E+02 8.38867E+03
 -1       160 9.14861E+04-5.84145E+08 2.61038E+02-2.97944E+04-1.14867E+02 2.76658E+04
 -1       161 8.85754E+04 5.74520E+08-4.56423E+02-5.05819E+04 3.44070E+01 1.98739E+04
 -1       162 8.64870E+04-7.66318E+08-6.70853E+01-7.77141E+04-8.77308E+01 3.75383E+04
 -1       163 8.07844E+04 7.17969E+08 2.81577E+02-6.82724E+04-1.27474E+02 3.75007E+04
 -1       164 7.77419E+04-8.43822E+08-1.28160E+02-5.34847E+04 6.21926E+01 2.26600E+04
 -1       165 7.14810E+04 8.76534E+08 3.25962E+02-6.27012E+04-2.37674E+02 2.03790E+04
 -1       166 6.92134E+04-9.67292E+08 9.62865E+01-4.64862E+04-1.11890E+02 2.27370E+04
 -1       167 6.21010E+04 9.86220E+08-6.31429E+01-4.29694E+04 1.12491E+02 1.06466E+04
 -1       168 5.80511E+04-1.05983E+09 9.94518E+01-4.42708E+04-1.28170E+02 9.04330E+03
 -1       169 5.09015E+04 1.11752E+09 2.63533E+01-4.79168E+04 1.43856E+02-4.86936E+03
 -1       170 4.91185E+04-1.17438E+09-3.50946E+02-7.08904E+04 1.77164E+02-1.01924E+04
 -1       171 4.10364E+04 1.26721E+09-4.87358E+01-5.96559E+04-5.38989E+01-2.84554E+04
 -1       172 3.79646E+04-1.30816E+09 2.11841E+02-7.39283E+04 4.61223E+01-2.15712E+04
 -1       173 3.09219E+04 1.40443E+09-5.80965E+01-8.40706E+04 9.16701E+00-1.97985E+04
 -1       174 2.93721E+04-1.43760E+09 1.11198E+02-1.03796E+05-2.39843E+02-1.26615E+04
 -1       175 2.14850E+04 1.52236E+09 1.25421E+02-1.17291E+05 1.44327E+02-4.63591E+03
 -1       176 2.03019E+04-1.56244E+09 3.19138E+01-1.15728E+05 1.55638E+02-2.11383E+04
 -1       177 1.30853E+04 1.65235E+09-6.40460E+00-1.25701E+05 2.16185E+02-1.68844E+04
 -1       178 1.28503E+04-1.61858E+09 2.17866E+02-1.21378E+05-1.88014E+02-2.06966E+03
 -1       179 6.28292E+03 1.71016E+09-5.45016E+01-1.29748E+05-2.63670E+01-1.38668E+03
 -1       180 6.19078E+03-1.72705E+09-3.30379E+02-1.11570E+05-1.23116E+02 9.32406E+03
 -1       181-1.84989E+01 1.80515E+09 3.63281E+02-1.23318E+05-2.26405E+02 1.72180E+04
 -1       182 7.72002E+02-1.74751E+09-2.62825E+02-9.53485E+04 4.79566E+01 2.12252E+04
 -1       183-5.71168E+03 1.89248E+09 1.89004E+02-1.06350E+05-1.13744E+02 1.64073E+04
 -1       184-2.31026E+03-1.83223E+09 7.42778E+01-1.11687E+05-4.72995E+01 1.44115E+04
 -1       185-6.78267E+03 1.93363E+09-1.53959E+02-9.70440E+04 2.05576E+02 1.17521E+04
 -1       186-4.67399E+03-1.95357E+09 1.66108E+02-8.89662E+04 1.15888E+02-3.66681E+03
 -1       187-8.40682E+03 2.08140E+09-2.25892E+02-1.00504E+05-3.82888E+01-1.19388E+03
 -1       188-4.57270E+03-2.07370E+09-1.33701E+02-1.01686E+05-1.20547E+02-1.23031E+04
 -1       189-8.29098E+03 2.22516E+09-1.06231E+02-7.96929E+04 3.39092E+02 7.99589E+03
 -1       190-2.30821E+03-2.23458E+09-2.66018E+02-6.00729E+04 2.74615E+02-2.35768E+03
 -1       191-6.36746E+03 2.28244E+09 3.37862E+02-5.52998E+04-1.09854E+01-6.08000E+03
 -1       192-4.27874E+02-2.33239E+09-1.99070E+02-5.23247E+04-1.38501E+02 1.32480E+03
 -1       193-3.33997E+03 2.35003E+09 7.54262E+01-3.37611E+04-1.20060E+02-1.47269E+04
 -1       194 2.04028E+03-2.40045E+09-5.66102E+02-3.83146E+04-7.57038E+01 7.73742E+03
 -1       195-2.81902E+03 2.42608E+09 6.98659E+01-3.04956E+04-1.33276E+02 8.42157E+03
 -1       196 2.82104E+03-2.42341E+09-9.49328E+01-3.84879E+04 2.15646E+02 6.65184E+03
 -1       197-9.37888E+02 2.41948E+09 2.62070E+02-1.94479E+04 7.20040E+01-8.23785E+03
 -1       198 4.46246E+03-2.48516E+09-2.20017E+02 6.55649E+03 3.05734E+02 4.62370E+03
 -1       199 5.10354E+02 2.41394E+09-1.34032E+02 1.43540E+04-5.16880E+02-5.22414E+03
 -1       200 4.98448E+03-2.42426E+09-1.17920E+02 5.35391E+03 3.07014E+03-7.22242E+03
 -1       201-9.74643E+02 2.43407E+09 5.20446E+02 2.78335E+02-1.11132E+04-3.19917E+02
 -3
    1PSTEP                        11           1           1          
    1PGM                1.000000E+00                                  
    1PGK                1.504716E+02                                  
    1PHID                         -1                                  
    1PSUBC                         0                                  
    1PMODE                         3                                  
  100CL  103 1.952303540         201                     2    3MODAL      1
 -4  TOSTRAIN    6    1
 -5  EXX         1    4    1    1
 -5  EYY         1    4    2    2
 -5  EZZ         1    4    3    3
 -5  EXY         1    4    1    2
 -5  EYZ         1    4    2    3
 -5  EZX         1    4    3    1
 -1         1-5.32066E-03 1.77390E-02-5.32216E-03-8.72644E-07-3.17226E-08-3.73368E-09
 -1         2 4.91590E-03-1.63827E-02 4.91434E-03-6.09004E-07 8.48121E-09-2.42682E-07
 -1         3-5.32770E-03 1.77626E-02-5.32923E-03-3.27564E-07-1.64095E-09-3.00795E-07
 -1         4 4.99530E-03-1.66473E-02 4.99371E-03-4.87257E-07-2.86367E-09-2.62560E-07
 -1         5-5.17367E-03 1.72493E-02-5.17526E-03-3.52509E-07-2.22360E-09-2.48477E-07
 -1         6 4.90744E-03-1.63542E-02 4.90576E-03-1.78886E-07-5.70961E-10-2.29360E-07
 -1         7-4.99826E-03 1.66647E-02-4.99992E-03-3.31223E-07 2.03735E-09-1.58997E-07
 -1         8 4.87857E-03-1.62578E-02 4.87682E-03-1.65789E-07 9.11718E-10-6.71416E-08
 -1         9-4.60786E-03 1.53636E-02-4.60961E-03-1.16904E-07 2.45039E-09 1.60096E-07
 -1        10 4.51075E-03-1.50315E-02 4.50890E-03 6.51371E-09 1.34873E-09 2.71143E-07
 -1        11-4.21489E-03 1.40539E-02-4.21674E-03-9.16978E-08-1.01828E-09 2.96500E-07
 -1        12 4.32912E-03-1.44260E-02 4.32721E-03-3.44842E-07-1.18772E-10 1.10569E-07
 -1        13-4.11617E-03 1.37250E-02-4.11808E-03-5.05833E-07-9.05180E-10 1.63230E-08
 -1        14 4.02005E-03-1.33956E-02 4.01808E-03-5.06998E-07-2.41844E-09 4.07156E-08
 -1        15-3.88370E-03 1.29502E-02-3.88565E-03-6.72471E-07 6.27505E-10-4.80669E-08
 -1        16 3.82368E-03-1.27409E-02 3.82166E-03-7.24537E-07 1.56823E-09-2.78631E-07
 -1        17-3.55618E-03 1.18586E-02-3.55819E-03-3.68956E-07-9.46579E-10 1.47564E-08
 -1        18 3.55032E-03-1.18296E-02 3.54826E-03-1.84930E-07 1.25609E-09-7.03463E-08
 -1        19-3.21690E-03 1.07278E-02-3.21894E-03-3.31875E-07 4.87519E-10-2.63207E-08
 -1        20 3.20698E-03-1.06850E-02 3.20488E-03-3.19789E-07-3.74090E-10 2.16707E-07
 -1        21-2.89011E-03 9.63857E-03-2.89219E-03-2.50734E-07 3.42163E-09 1.02447E-08
 -1        22 2.93827E-03-9.78932E-03 2.93616E-03-4.69807E-07 1.02925E-09 1.13127E-08
 -1        23-2.62810E-03 8.76520E-03-2.63018E-03-2.69614E-07 8.43491E-10 1.25339E-07
 -1        24 2.52986E-03-8.42798E-03 2.52776E-03-2.83805E-07 8.34620E-10 1.59694E-07
 -1        25-2.42857E-03 8.10006E-03-2.43064E-03-5.27163E-07-9.69848E-11 1.46408E-07
 -1        26 2.29675E-03-7.65096E-03 2.29466E-03-4.66907E-07 2.34197E-10 1.60586E-07
 -1        27-2.31143E-03 7.70958E-03-2.31349E-03-3.40921E-07 3.59199E-10 1.56599E-07
 -1        28 2.07760E-03-6.92044E-03 2.07551E-03-2.38186E-07 1.20301E-09 2.68306E-08
 -1        29-1.98949E-03 6.63650E-03-1.99157E-03-4.31291E-07-5.67851E-10-1.86964E-07
 -1        30 1.88806E-03-6.28863E-03 1.88596E-03-4.01140E-07 1.44114E-09-2.70397E-07
 -1        31-1.75424E-03 5.85234E-03-1.75633E-03-1.84621E-08-2.09698E-09-1.67296E-07
 -1        32 1.53192E-03-5.10148E-03 1.52981E-03 1.25708E-07-2.00063E-09-1.88419E-07
 -1        33-1.44935E-03 4.83607E-03-1.45145E-03 2.12956E-07-6.48993E-10-1.02349E-07
 -1        34 1.28549E-03-4.27998E-03 1.28336E-03 1.88392E-07 1.18367E-09 1.61633E-08
 -1        35-1.20425E-03 4.01914E-03-1.20638E-03 3.54553E-07-6.14700E-11 1.08954E-07
 -1        36 1.23846E-03-4.12322E-03 1.23633E-03 4.41307E-07 1.71780E-09 8.92078E-08
 -1        37-1.25459E-03 4.18698E-03-1.25674E-03 5.45508E-07 8.68752E-10 9.04439E-08
 -1        38 1.27445E-03-4.24308E-03 1.27227E-03 2.22727E-07 1.57766E-09 1.87574E-07
 -1        39-1.27440E-03 4.25305E-03-1.27656E-03 1.16060E-07-3.98436E-10 1.95628E-07
 -1        40 1.29411E-03-4.30861E-03 1.29193E-03-1.48905E-07-1.02824E-09 8.97663E-08
 -1        41-1.29069E-03 4.30739E-03-1.29287E-03-3.33895E-09 6.91120E-10 1.27747E-07
 -1        42 1.27260E-03-4.23684E-03 1.27039E-03-2.27793E-08-4.82134E-10 9.30672E-08
 -1        43-1.38369E-03 4.61743E-03-1.38589E-03-3.17491E-08-1.91070E-09 1.03710E-07
 -1        44 1.28705E-03-4.28496E-03 1.28482E-03-2.54474E-07-1.90794E-09 3.02551E-07
 -1        45-1.41422E-03 4.71928E-03-1.41645E-03-4.51827E-07 3.61054E-09 3.41118E-07
 -1        46 1.20200E-03-4.00139E-03 1.19974E-03-3.21290E-07-1.10398E-09 2.71158E-07
 -1        47-1.25054E-03 4.17376E-03-1.25281E-03-3.26810E-07 3.46978E-10 2.37497E-07
 -1        48 1.30241E-03-4.33595E-03 1.30009E-03-3.24781E-07-2.85805E-09 1.48742E-07
 -1        49-1.17561E-03 3.92414E-03-1.17794E-03-2.47359E-07 1.17820E-09 2.06738E-07
 -1        50 1.17257E-03-3.90306E-03 1.17021E-03-3.11169E-07-4.13702E-09 1.37289E-07
 -1        51-1.06335E-03 3.55004E-03-1.06572E-03-3.72639E-07 1.07374E-09 4.08943E-08
 -1        52 1.01118E-03-3.36502E-03 1.00878E-03-2.80160E-07 2.98659E-10 2.63255E-07
 -1        53-9.79364E-04 3.27015E-03-9.81766E-04-2.12814E-07-4.51500E-09 1.60196E-07
 -1        54 9.90121E-04-3.29472E-03 9.87685E-04-2.25909E-07 1.87965E-09-5.62521E-08
 -1        55-9.63044E-04 3.21586E-03-9.65495E-04-1.97807E-07 5.40015E-10-2.58255E-08
 -1        56 1.06535E-03-3.54539E-03 1.06288E-03-2.32044E-07-1.22281E-09-2.77205E-07
 -1        57-9.57771E-04 3.19835E-03-9.60250E-04-2.79378E-07-3.56090E-10-2.96723E-07
 -1        58 1.10725E-03-3.68502E-03 1.10476E-03-1.72552E-07 2.57241E-09-1.48899E-07
 -1        59-9.94018E-04 3.31921E-03-9.96509E-04-4.74934E-07 7.14431E-10-3.34175E-07
 -1        60 1.13864E-03-3.78959E-03 1.13612E-03-3.28968E-07-6.55963E-10-4.00686E-07
 -1        61-1.01698E-03 3.39580E-03-1.01949E-03-3.91124E-07-1.72962E-09-3.03150E-07
 -1        62 1.15436E-03-3.84202E-03 1.15185E-03-2.50652E-07-2.43528E-09 4.24935E-09
 -1        63-1.16142E-03 3.87723E-03-1.16392E-03-2.26138E-07 2.41513E-10 1.21059E-07
 -1        64 1.11423E-03-3.70826E-03 1.11173E-03-9.40299E-09 5.81859E-10 1.90565E-08
 -1        65-1.24295E-03 4.14899E-03-1.24544E-03 7.14474E-08 4.12757E-09-1.50140E-07
 -1        66 1.42010E-03-4.72783E-03 1.41760E-03 1.19579E-07 1.11903E-09-7.38091E-08
 -1        67-1.52603E-03 5.09257E-03-1.52852E-03 1.80104E-08 7.97706E-11-2.62932E-07
 -1        68 1.81499E-03-6.04412E-03 1.81249E-03 4.52838E-08-6.52561E-10-2.29227E-07
 -1        69-1.79122E-03 5.97651E-03-1.79370E-03 2.37967E-07 1.61724E-09-2.42372E-07
 -1        70 2.09170E-03-6.96654E-03 2.08922E-03 4.17596E-07 1.56871E-10-1.10676E-07
 -1        71-2.20006E-03 7.33927E-03-2.20252E-03 4.45964E-07 1.22792E-09-1.68133E-07
 -1        72 2.42480E-03-8.07691E-03 2.42233E-03 2.24693E-07 2.37462E-10-7.97607E-08
 -1        73-2.60272E-03 8.68139E-03-2.60514E-03 9.80553E-08-1.16274E-09 5.72187E-09
 -1        74 2.67468E-03-8.90995E-03 2.67226E-03 1.79176E-07-1.39593E-10 1.52643E-07
 -1        75-2.77612E-03 9.25932E-03-2.77852E-03 3.47371E-07-3.02322E-11 7.52739E-08
 -1        76 2.87442E-03-9.57577E-03 2.87201E-03 5.54217E-07 3.62055E-09-7.80681E-08
 -1        77-2.95578E-03 9.85811E-03-2.95814E-03 5.28765E-07-4.81315E-10-6.34669E-08
 -1        78 3.16451E-03-1.05428E-02 3.16213E-03 3.98107E-07-6.28536E-10 6.59055E-08
 -1        79-3.17276E-03 1.05813E-02-3.17509E-03 4.88625E-07 2.06582E-09 9.60009E-08
 -1        80 3.29889E-03-1.09908E-02 3.29655E-03 5.57162E-07 3.07330E-09-8.84936E-08
 -1        81-3.17972E-03 1.06044E-02-3.18202E-03 5.81441E-07 4.43560E-09-1.00329E-07
 -1        82 3.22866E-03-1.07568E-02 3.22637E-03 5.58032E-07-5.31839E-10-2.16361E-07
 -1        83-3.13547E-03 1.04568E-02-3.13770E-03 4.98217E-07 3.92103E-09 9.46266E-08
 -1        84 3.24346E-03-1.08063E-02 3.24122E-03 3.94730E-07 2.93771E-09 2.78645E-07
 -1        85-3.21204E-03 1.07119E-02-3.21421E-03 4.75939E-07-4.52004E-09 3.85332E-07
 -1        86 3.20272E-03-1.06707E-02 3.20054E-03 1.77274E-07 2.70463E-09 3.79503E-07
 -1        87-3.12033E-03 1.04060E-02-3.12244E-03-1.98651E-07-6.46229E-10 2.12576E-07
 -1        88 3.20256E-03-1.06703E-02 3.20045E-03-2.65557E-07 4.58343E-09 2.52820E-07
 -1        89-3.07306E-03 1.02483E-02-3.07511E-03-1.04478E-07-5.81393E-10 1.20482E-07
 -1        90 3.22665E-03-1.07508E-02 3.22462E-03-8.73647E-08 1.90867E-09 2.58311E-07
 -1        91-3.16109E-03 1.05415E-02-3.16305E-03 1.79548E-08 9.88758E-10 3.01020E-07
 -1        92 3.03233E-03-1.01032E-02 3.03039E-03-1.66660E-08-1.39822E-09 7.80498E-09
 -1        93-3.09778E-03 1.03303E-02-3.09965E-03-1.83984E-07 4.92859E-09-1.68112E-08
 -1        94 3.00766E-03-1.00212E-02 3.00579E-03-1.97775E-07 2.37585E-10-7.98917E-08
 -1        95-3.03951E-03 1.01359E-02-3.04132E-03 1.76710E-07-3.51740E-10-2.24769E-07
 -1        96 3.00701E-03-1.00192E-02 3.00522E-03 4.23251E-07 2.74346E-10-2.04041E-07
 -1        97-2.90422E-03 9.68479E-03-2.90596E-03 4.21378E-07 6.58322E-10 8.57252E-08
 -1        98 2.87224E-03-9.57013E-03 2.87052E-03 4.62770E-07-1.98818E-10 1.95209E-07
 -1        99-2.88921E-03 9.63458E-03-2.89087E-03 5.20187E-07 1.59703E-09 2.35353E-07
 -1       100 2.81987E-03-9.39570E-03 2.81821E-03 2.91154E-07 4.69595E-10 7.60331E-08
 -1       101-2.80731E-03 9.36139E-03-2.80889E-03 2.05252E-07 2.23508E-09-6.45988E-08
 -1       102 2.85055E-03-9.49817E-03 2.84898E-03-1.51073E-07 2.75562E-09-3.06340E-07
 -1       103-2.88732E-03 9.62796E-03-2.88885E-03 1.87110E-07 8.25011E-10-1.47484E-07
 -1       104 2.63108E-03-8.76675E-03 2.62957E-03 1.57693E-07 2.50177E-09-1.67877E-07
 -1       105-2.65666E-03 8.85892E-03-2.65811E-03 2.08167E-07-8.04445E-10-2.65940E-07
 -1       106 2.26650E-03-7.55158E-03 2.26504E-03 1.45537E-07-6.62103E-10-2.75248E-07
 -1       107-2.30547E-03 7.68825E-03-2.30691E-03 9.92833E-08 2.76658E-09 8.16615E-10
 -1       108 2.02965E-03-6.76215E-03 2.02822E-03 8.91670E-08-7.21304E-10 2.81663E-10
 -1       109-2.00391E-03 6.68297E-03-2.00531E-03-4.91431E-08 4.55116E-09-5.16686E-09
 -1       110 1.79259E-03-5.97200E-03 1.79118E-03 2.01539E-07 5.19455E-10-2.27369E-07
 -1       111-1.76506E-03 5.88679E-03-1.76646E-03-4.76993E-08 3.25549E-09-3.28249E-07
 -1       112 1.60430E-03-5.34439E-03 1.60289E-03 3.94934E-08 2.08056E-09-1.41474E-07
 -1       113-1.59230E-03 5.31092E-03-1.59370E-03 2.97884E-07-7.17307E-10-1.95500E-08
 -1       114 1.53666E-03-5.11892E-03 1.53525E-03 3.31646E-07 2.33542E-09-4.30922E-08
 -1       115-1.34204E-03 4.47670E-03-1.34343E-03 1.37765E-07 7.34599E-10 1.33215E-08
 -1       116 1.26116E-03-4.20059E-03 1.25975E-03-3.56660E-08-1.00439E-09-1.57425E-08
 -1       117-1.06556E-03 3.55512E-03-1.06695E-03-4.18336E-08-7.13357E-10-1.01668E-08
 -1       118 1.05583E-03-3.51619E-03 1.05444E-03-4.96666E-08-1.61990E-09-1.77434E-07
 -1       119-8.87504E-04 2.96157E-03-8.88886E-04-5.48461E-08 1.93627E-09-1.41305E-07
 -1       120 9.44683E-04-3.14574E-03 9.43307E-04-1.89126E-07 3.20931E-09-1.15583E-07
 -1       121-6.62928E-04 2.21289E-03-6.64267E-04-2.44687E-07 2.13281E-09-4.31412E-08
 -1       122 8.52425E-04-2.83831E-03 8.51092E-04-1.82990E-07-6.55983E-10 7.51712E-08
 -1       123-5.38956E-04 1.79955E-03-5.40252E-04-2.47385E-07 3.76323E-09-1.25390E-07
 -1       124 6.50241E-04-2.16452E-03 6.48974E-04-5.18504E-07 2.75218E-09-2.63637E-07
 -1       125-5.17395E-04 1.72751E-03-5.18621E-04-4.52454E-07 3.24050E-10-5.36415E-08
 -1       126 4.41688E-04-1.46950E-03 4.40487E-04-4.11537E-07-2.31175E-09-1.37175E-08
 -1       127-4.13760E-04 1.38188E-03-4.14906E-04-2.75202E-07 1.23155E-09 5.39471E-08
 -1       128 3.46441E-04-1.15220E-03 3.45324E-04-2.19308E-07-2.19578E-09-8.67446E-08
 -1       129-3.42132E-04 1.14297E-03-3.43216E-04-5.97501E-08 4.18235E-09 1.34414E-07
 -1       130 3.76534E-04-1.25267E-03 3.75489E-04-2.28687E-07 1.87419E-09 1.74283E-07
 -1       131-3.50249E-04 1.16984E-03-3.51254E-04-1.61375E-07 7.91866E-11-3.30435E-08
 -1       132 2.63135E-04-8.74839E-04 2.62158E-04-5.99156E-08 1.80766E-10-2.17281E-08
 -1       133-2.74866E-04 9.18408E-04-2.75804E-04 1.91092E-07-1.28714E-09-1.35321E-08
 -1       134 1.04483E-04-3.46161E-04 1.03576E-04 2.75741E-08 7.92529E-10-3.30154E-08
 -1       135-2.16607E-04 7.24056E-04-2.17480E-04 5.71601E-08-2.70624E-10 4.82518E-08
 -1       136-1.04392E-04 3.49951E-04-1.05240E-04 1.92758E-07 4.24301E-09-1.56534E-09
 -1       137-2.26957E-04 7.58482E-04-2.27797E-04 3.17906E-07 1.26709E-09 1.78565E-07
 -1       138-1.84269E-04 6.16165E-04-1.85098E-04 4.31474E-07 2.06800E-09 2.61257E-07
 -1       139-7.87605E-07 4.56829E-06-1.61971E-06 2.29476E-07 2.10904E-09 1.23698E-07
 -1       140-2.85630E-04 9.54071E-04-2.86473E-04 4.78914E-07 2.00890E-09 2.02757E-07
 -1       141 1.58822E-04-5.27400E-04 1.57961E-04 5.70461E-07-5.67029E-10 2.15840E-07
 -1       142-3.54560E-04 1.18389E-03-3.55428E-04 6.27100E-07 3.52655E-09 1.74755E-07
 -1       143 2.48133E-04-8.25024E-04 2.47239E-04 4.74749E-07 1.60365E-09 1.87240E-07
 -1       144-3.01277E-04 1.00642E-03-3.02205E-04 3.79057E-07 7.82740E-10 4.30105E-08
 -1       145 1.35611E-04-4.49812E-04 1.34657E-04 4.49295E-07 3.31459E-09-4.52484E-08
 -1       146-1.40651E-04 4.71111E-04-1.41625E-04 4.08337E-07-2.22507E-09-1.83504E-07
 -1       147-2.21820E-05 7.63043E-05-2.31979E-05 2.37951E-07-3.89431E-10-3.75833E-07
 -1       148 1.20751E-04-4.00074E-04 1.19709E-04 1.99707E-07-6.22898E-10-2.82603E-07
 -1       149-7.49887E-05 2.52467E-04-7.60613E-05 2.28451E-07-1.66278E-09-4.85245E-07
 -1       150 3.43311E-04-1.14180E-03 3.42207E-04 1.99752E-07 2.40618E-09-3.84356E-07
 -1       151-2.21113E-04 7.39663E-04-2.22237E-04 2.10015E-07 1.19402E-09-2.59851E-07
 -1       152 6.36006E-04-2.11735E-03 6.34864E-04-7.38983E-08 1.02783E-09 2.32795E-08
 -1       153-5.75138E-04 1.91980E-03-5.76285E-04-1.58845E-07 1.52925E-09-5.54817E-08
 -1       154 8.47859E-04-2.82351E-03 8.46705E-04-3.47667E-07-3.31784E-10-2.26969E-08
 -1       155-8.22081E-04 2.74295E-03-8.23229E-04-5.20768E-07 1.34959E-09 1.76325E-08
 -1       156 1.06348E-03-3.54223E-03 1.06232E-03-5.46555E-07-1.64802E-09 6.89547E-08
 -1       157-9.65865E-04 3.22220E-03-9.67002E-04-5.35104E-07-4.34897E-09 1.21678E-07
 -1       158 1.35897E-03-4.52726E-03 1.35784E-03-6.07363E-07 1.29351E-09 1.67944E-07
 -1       159-1.26862E-03 4.23128E-03-1.26971E-03-4.51238E-07 2.11912E-09 9.91388E-08
 -1       160 1.59395E-03-5.31066E-03 1.59287E-03-3.52116E-07-1.35752E-09 3.26959E-07
 -1       161-1.56607E-03 5.22266E-03-1.56712E-03-5.97786E-07 4.06628E-10 2.34874E-07
 -1       162 2.09075E-03-6.96677E-03 2.08972E-03-9.18439E-07-1.03682E-09 4.43635E-07
 -1       163-1.95736E-03 6.52677E-03-1.95832E-03-8.06855E-07-1.50652E-09 4.43190E-07
 -1       164 2.30204E-03-7.67132E-03 2.30112E-03-6.32091E-07 7.35003E-10 2.67800E-07
 -1       165-2.38990E-03 7.96829E-03-2.39074E-03-7.41014E-07-2.80887E-09 2.40843E-07
 -1       166 2.63870E-03-8.79375E-03 2.63788E-03-5.49383E-07-1.32234E-09 2.68710E-07
 -1       167-2.68913E-03 8.96546E-03-2.68986E-03-5.07820E-07 1.32944E-09 1.25823E-07
 -1       168 2.89097E-03-9.63495E-03 2.89028E-03-5.23200E-07-1.51473E-09 1.06875E-07
 -1       169-3.04731E-03 1.01591E-02-3.04791E-03-5.66289E-07 1.70011E-09-5.75470E-08
 -1       170 3.20330E-03-1.06763E-02 3.20271E-03-8.37795E-07 2.09375E-09-1.20455E-07
 -1       171-3.45565E-03 1.15200E-02-3.45613E-03-7.05024E-07-6.36987E-10-3.36291E-07
 -1       172 3.56805E-03-1.18925E-02 3.56761E-03-8.73699E-07 5.45082E-10-2.54932E-07
 -1       173-3.82998E-03 1.27675E-02-3.83035E-03-9.93562E-07 1.08337E-10-2.33983E-07
 -1       174 3.92099E-03-1.30692E-02 3.92064E-03-1.22668E-06-2.83451E-09-1.49636E-07
 -1       175-4.15169E-03 1.38396E-02-4.15194E-03-1.38616E-06 1.70569E-09-5.47881E-08
 -1       176 4.26140E-03-1.42041E-02 4.26116E-03-1.36770E-06 1.83936E-09-2.49816E-07
 -1       177-4.50629E-03 1.50213E-02-4.50644E-03-1.48556E-06 2.55492E-09-1.99543E-07
 -1       178 4.41443E-03-1.47144E-02 4.41428E-03-1.43447E-06-2.22198E-09-2.44596E-08
 -1       179-4.66402E-03 1.55469E-02-4.66410E-03-1.53338E-06-3.11610E-10-1.63880E-08
 -1       180 4.71020E-03-1.57005E-02 4.71012E-03-1.31855E-06-1.45501E-09 1.10193E-07
 -1       181-4.92313E-03 1.64104E-02-4.92312E-03-1.45739E-06-2.67570E-09 2.03486E-07
 -1       182 4.76594E-03-1.58864E-02 4.76593E-03-1.12685E-06 5.66760E-10 2.50843E-07
 -1       183-5.16136E-03 1.72044E-02-5.16129E-03-1.25686E-06-1.34424E-09 1.93904E-07
 -1       184 4.99698E-03-1.66567E-02 4.99701E-03-1.31994E-06-5.58994E-10 1.70317E-07
 -1       185-5.27361E-03 1.75785E-02-5.27353E-03-1.14688E-06 2.42953E-09 1.38888E-07
 -1       186 5.32787E-03-1.77597E-02 5.32792E-03-1.05142E-06 1.36958E-09-4.33350E-08
 -1       187-5.67663E-03 1.89219E-02-5.67653E-03-1.18778E-06-4.52504E-10-1.41095E-08
 -1       188 5.65550E-03-1.88518E-02 5.65556E-03-1.20174E-06-1.42465E-09-1.45400E-07
 -1       189-6.06870E-03 2.02288E-02-6.06860E-03-9.41825E-07 4.00745E-09 9.44968E-08
 -1       190 6.09430E-03-2.03144E-02 6.09432E-03-7.09952E-07 3.24545E-09-2.78635E-08
 -1       191-6.22490E-03 2.07495E-02-6.22483E-03-6.53543E-07-1.29827E-10-7.18545E-08
 -1       192 6.36105E-03-2.12035E-02 6.36105E-03-6.18383E-07-1.63683E-09 1.56567E-08
 -1       193-6.40921E-03 2.13639E-02-6.40917E-03-3.98995E-07-1.41889E-09-1.74045E-07
 -1       194 6.54669E-03-2.18222E-02 6.54666E-03-4.52809E-07-8.94681E-10 9.14422E-08
 -1       195-6.61660E-03 2.20553E-02-6.61657E-03-3.60403E-07-1.57507E-09 9.95276E-08
 -1       196 6.60934E-03-2.20310E-02 6.60930E-03-4.54857E-07 2.54854E-09 7.86127E-08
 -1       197-6.59860E-03 2.19953E-02-6.59858E-03-2.29839E-07 8.50957E-10-9.73564E-08
 -1       198 6.77776E-03-2.25924E-02 6.77771E-03 7.74858E-08 3.61323E-09 5.46438E-08
 -1       199-6.58346E-03 2.19449E-02-6.58347E-03 1.69638E-07-6.10858E-09-6.17398E-08
 -1       200 6.61165E-03-2.20387E-02 6.61159E-03 6.32735E-08 3.62835E-08-8.53559E-08
 -1       201-6.63839E-03 2.21279E-02-6.63837E-03 3.28941E-09-1.31338E-07-3.78084E-09
 -3
    1PSTEP                        12           1           1          
    1PGM                1.000000E+00                                  
    1PGK                1.504716E+02                                  
    1PHID                         -1                                  
    1PSUBC                         0                                  
    1PMODE                         3                                  
  100CL  103 1.952303540         201                     2    3MODAL      1
 -4  ERROR       1    1
 -5  STR(%)      1    1    0    0
 -1         1 1.21526E+02
 -1         2 1.21526E+02
 -1         3 1.21550E+02
 -1         4 1.21610E+02
 -1         5 1.21620E+02
 -1         6 1.21620E+02
 -1         7 1.21596E+02
 -1         8 1.21547E+02
 -1         9 1.21539E+02
 -1        10 1.21529E+02
 -1        11 1.21505E+02
 -1        12 1.21601E+02
 -1        13 1.21601E+02
 -1        14 1.21582E+02
 -1        15 1.21663E+02
 -1        16 1.21663E+02
 -1        17 1.21726E+02
 -1        18 1.21726E+02
 -1        19 1.21568E+02
 -1        20 1.21726E+02
 -1        21 1.21726E+02
 -1        22 1.21697E+02
 -1        23 1.21680E+02
 -1        24 1.21680E+02
 -1        25 1.21657E+02
 -1        26 1.21487E+02
 -1        27 1.21627E+02
 -1        28 1.21627E+02
 -1        29 1.21611E+02
 -1        30 1.21611E+02
 -1        31 1.21513E+02
 -1        32 1.21617E+02
 -1        33 1.21790E+02
 -1        34 1.21790E+02
 -1        35 1.21543E+02
 -1        36 1.21543E+02
 -1        37 1.21979E+02
 -1        38 1.21979E+02
 -1        39 1.21423E+02
 -1        40 1.21567E+02
 -1        41 1.21567E+02
 -1        42 1.21434E+02
 -1        43 1.21358E+02
 -1        44 1.20832E+02
 -1        45 1.20733E+02
 -1        46 1.20867E+02
 -1        47 1.20882E+02
 -1        48 1.21085E+02
 -1        49 1.21272E+02
 -1        50 1.21747E+02
 -1        51 1.21747E+02
 -1        52 1.20948E+02
 -1        53 1.21421E+02
 -1        54 1.21499E+02
 -1        55 1.21577E+02
 -1        56 1.21577E+02
 -1        57 1.20391E+02
 -1        58 1.20833E+02
 -1        59 1.20833E+02
 -1        60 1.20183E+02
 -1        61 1.21010E+02
 -1        62 1.21527E+02
 -1        63 1.21694E+02
 -1        64 1.21733E+02
 -1        65 1.21733E+02
 -1        66 1.21524E+02
 -1        67 1.21524E+02
 -1        68 1.21214E+02
 -1        69 1.21311E+02
 -1        70 1.21558E+02
 -1        71 1.21612E+02
 -1        72 1.21625E+02
 -1        73 1.21625E+02
 -1        74 1.21613E+02
 -1        75 1.21518E+02
 -1        76 1.21597E+02
 -1        77 1.21597E+02
 -1        78 1.21629E+02
 -1        79 1.21629E+02
 -1        80 1.21542E+02
 -1        81 1.21512E+02
 -1        82 1.21512E+02
 -1        83 1.21510E+02
 -1        84 1.21504E+02
 -1        85 1.21393E+02
 -1        86 1.21523E+02
 -1        87 1.21600E+02
 -1        88 1.21600E+02
 -1        89 1.21544E+02
 -1        90 1.21436E+02
 -1        91 1.21495E+02
 -1        92 1.21564E+02
 -1        93 1.21734E+02
 -1        94 1.21734E+02
 -1        95 1.21558E+02
 -1        96 1.21482E+02
 -1        97 1.21482E+02
 -1        98 1.21480E+02
 -1        99 1.21597E+02
 -1       100 1.21755E+02
 -1       101 1.21755E+02
 -1       102 1.21541E+02
 -1       103 1.21541E+02
 -1       104 1.21455E+02
 -1       105 1.21311E+02
 -1       106 1.21306E+02
 -1       107 1.21478E+02
 -1       108 1.21617E+02
 -1       109 1.21617E+02
 -1       110 1.21530E+02
 -1       111 1.21361E+02
 -1       112 1.21361E+02
 -1       113 1.21699E+02
 -1       114 1.21699E+02
 -1       115 1.21431E+02
 -1       116 1.21459E+02
 -1       117 1.21459E+02
 -1       118 1.21076E+02
 -1       119 1.21362E+02
 -1       120 1.21698E+02
 -1       121 1.21698E+02
 -1       122 1.21560E+02
 -1       123 1.21560E+02
 -1       124 1.20982E+02
 -1       125 1.21450E+02
 -1       126 1.21450E+02
 -1       127 1.21423E+02
 -1       128 1.21881E+02
 -1       129 1.21881E+02
 -1       130 1.21603E+02
 -1       131 1.22228E+02
 -1       132 1.22389E+02
 -1       133 1.22389E+02
 -1       134 1.23516E+02
 -1       135 1.23516E+02
 -1       136 4.36082E+01
 -1       137 4.36082E+01
 -1       138 8.29986E+01
 -1       139 8.88315E+01
 -1       140 1.05021E+02
 -1       141 1.06599E+02
 -1       142 1.15024E+02
 -1       143 1.15795E+02
 -1       144 1.20834E+02
 -1       145 1.20834E+02
 -1       146 1.19122E+02
 -1       147 3.24145E+01
 -1       148 3.24145E+01
 -1       149 6.85288E+01
 -1       150 1.05238E+02
 -1       151 1.14924E+02
 -1       152 1.21516E+02
 -1       153 1.21804E+02
 -1       154 1.21871E+02
 -1       155 1.21871E+02
 -1       156 1.21629E+02
 -1       157 1.21366E+02
 -1       158 1.21442E+02
 -1       159 1.21472E+02
 -1       160 1.21472E+02
 -1       161 1.21117E+02
 -1       162 1.21053E+02
 -1       163 1.20807E+02
 -1       164 1.21487E+02
 -1       165 1.21591E+02
 -1       166 1.21591E+02
 -1       167 1.21537E+02
 -1       168 1.21536E+02
 -1       169 1.21595E+02
 -1       170 1.21663E+02
 -1       171 1.21663E+02
 -1       172 1.21526E+02
 -1       173 1.21518E+02
 -1       174 1.21546E+02
 -1       175 1.21546E+02
 -1       176 1.21527E+02
 -1       177 1.21607E+02
 -1       178 1.21607E+02
 -1       179 1.21605E+02
 -1       180 1.21605E+02
 -1       181 1.21607E+02
 -1       182 1.21607E+02
 -1       183 1.21575E+02
 -1       184 1.21548E+02
 -1       185 1.21538E+02
 -1       186 1.21562E+02
 -1       187 1.21584E+02
 -1       188 1.21584E+02
 -1       189 1.21535E+02
 -1       190 1.21548E+02
 -1       191 1.21548E+02
 -1       192 1.21521E+02
 -1       193 1.21527E+02
 -1       194 1.21527E+02
 -1       195 1.21533E+02
 -1       196 1.21555E+02
 -1       197 1.21555E+02
 -1       198 1.21560E+02
 -1       199 1.21560E+02
 -1       200 1.21533E+02
 -1       201 1.21521E+02
 -3
 9999
